[TITLE]

[JUNCTIONS]
 J10                                4812.7300  ;New Junction
 J100                               4786.5483  ;New Junction
 J1000                              4713.8779  ;New Junction
 J1002                              4718.8320  ;New Junction
 J1004                              4733.9897  ;New Junction
 J1006                              4733.6943  ;New Junction
 J1008                              4743.9961  ;New Junction
 J1010                              4741.5352  ;New Junction
 J1012                              4741.3057  ;New Junction
 J1014                              4749.4097  ;New Junction
 J1016                              4755.9712  ;New Junction
 J1018                              4744.2915  ;New Junction
 J102                               4781.8896  ;New Junction
 J1020                              4749.4751  ;New Junction
 J1022                              4755.3149  ;New Junction
 J1024                              4752.4609  ;New Junction
 J1026                              4756.1353  ;New Junction
 J1028                              4753.7729  ;New Junction
 J1030                              4739.5669  ;New Junction
 J1032                              4738.5825  ;New Junction
 J1034                              4734.9736  ;New Junction
 J1036                              4734.0552  ;New Junction
 J1038                              4736.4175  ;New Junction
 J104                               4776.2139  ;New Junction
 J1040                              4731.0366  ;New Junction
 J1042                              4739.5669  ;New Junction
 J1044                              4732.0864  ;New Junction
 J1046                              4727.6245  ;New Junction
 J1048                              4730.1509  ;New Junction
 J1050                              4743.5693  ;New Junction
 J1052                              4742.1919  ;New Junction
 J1054                              4727.9199  ;New Junction
 J1056                              4755.0195  ;New Junction
 J1058                              4746.5879  ;New Junction
 J106                               4771.9814  ;New Junction
 J1060                              4740.7808  ;New Junction
 J1062                              4734.1533  ;New Junction
 J1064                              4738.4189  ;New Junction
 J1066                              4729.2979  ;New Junction
 J1068                              4733.9897  ;New Junction
 J1070                              4719.9146  ;New Junction
 J1072                              4718.3071  ;New Junction
 J1074                              4720.5381  ;New Junction
 J1076                              4727.8872  ;New Junction
 J1078                              4718.8652  ;New Junction
 J108                               4771.3584  ;New Junction
 J1080                              4721.0303  ;New Junction
 J1082                              4724.3110  ;New Junction
 J1084                              4743.5693  ;New Junction
 J1086                              4740.2886  ;New Junction
 J1088                              4733.0381  ;New Junction
 J1090                              4733.1040  ;New Junction
 J1092                              4734.0552  ;New Junction
 J1094                              4721.2930  ;New Junction
 J1096                              4722.5723  ;New Junction
 J1098                              4724.6064  ;New Junction
 J110                               4771.8501  ;New Junction
 J1100                              4719.6523  ;New Junction
 J1102                              4719.8818  ;New Junction
 J1104                              4719.1929  ;New Junction
 J1106                              4720.9316  ;New Junction
 J1108                              4718.2744  ;New Junction
 J1110                              4725.3940  ;New Junction
 J1112                              4709.3506  ;New Junction
 J1114                              4732.1523  ;New Junction
 J1116                              4721.1943  ;New Junction
 J1118                              4721.4565  ;New Junction
 J112                               4771.2930  ;New Junction
 J1120                              4723.3271  ;New Junction
 J1122                              4719.1602  ;New Junction
 J1124                              4717.6182  ;New Junction
 J1126                              4724.3110  ;New Junction
 J1128                              4728.2480  ;New Junction
 J1130                              4728.6089  ;New Junction
 J1132                              4727.3950  ;New Junction
 J1134                              4716.9292  ;New Junction
 J1136                              4719.1602  ;New Junction
 J1138                              4716.0762  ;New Junction
 J114                               4771.9814  ;New Junction
 J1140                              4711.1221  ;New Junction
 J1142                              4713.0908  ;New Junction
 J1144                              4723.3599  ;New Junction
 J1146                              4696.8174  ;New Junction
 J1148                              4711.1548  ;New Junction
 J1150                              4705.5776  ;New Junction
 J1152                              4686.4175  ;New Junction
 J1154                              4703.9697  ;New Junction
 J1156                              4705.9053  ;New Junction
 J1158                              4673.7207  ;New Junction
 J116                               4760.9907  ;New Junction
 J1160                              4683.8911  ;New Junction
 J1162                              4683.7271  ;New Junction
 J1164                              4696.9160  ;New Junction
 J1166                              4714.4028  ;New Junction
 J1168                              4718.3730  ;New Junction
 J1170                              4716.1089  ;New Junction
 J1172                              4712.2705  ;New Junction
 J1174                              4715.6821  ;New Junction
 J1176                              4713.6484  ;New Junction
 J1178                              4714.3047  ;New Junction
 J118                               4754.2979  ;New Junction
 J1180                              4718.1104  ;New Junction
 J1182                              4716.4370  ;New Junction
 J1184                              4728.3462  ;New Junction
 J1186                              4748.1299  ;New Junction
 J1188                              4755.7090  ;New Junction
 J1190                              4749.9673  ;New Junction
 J1192                              4747.9663  ;New Junction
 J1194                              4745.9644  ;New Junction
 J1196                              4750.5576  ;New Junction
 J1198                              4740.9448  ;New Junction
 J12                                4808.5303  ;New Junction
 J120                               4760.1709  ;New Junction
 J1200                              4746.2598  ;New Junction
 J1202                              4742.8809  ;New Junction
 J1204                              4745.2754  ;New Junction
 J1206                              4761.7124  ;New Junction
 J1210                              4736.3188  ;Public Safety Building
 J1212                              4744.8164  ;New Junction
 J1214                              4751.3779  ;New Junction
 J1216                              4751.7715  ;New Junction
 J1218                              4748.3599  ;New Junction
 J122                               4751.9355  ;New Junction
 J1220                              4755.6104  ;New Junction
 J1222                              4739.2061  ;New Junction
 J1224                              4746.2598  ;New Junction
 J1226                              4738.6812  ;New Junction
 J1228                              4740.4858  ;New Junction
 J1230                              4739.2720  ;New Junction
 J1232                              4738.9111  ;New Junction
 J1234                              4738.7466  ;New Junction
 J1236                              4734.4814  ;New Junction
 J1238                              4716.9946  ;New Junction
 J124                               4765.2559  ;New Junction
 J1240                              4714.0420  ;New Junction
 J1242                              4715.4858  ;New Junction
 J1244                              4719.1929  ;New Junction
 J1246                              4718.3071  ;New Junction
 J1248                              4715.1899  ;New Junction
 J1250                              4715.1250  ;New Junction
 J1252                              4713.9111  ;Harvest Park N
 J1254                              4714.0093  ;New Junction
 J1256                              4713.0581  ;New Junction
 J1258                              4713.0908  ;New Junction
 J126                               4765.6172  ;New Junction
 J1260                              4712.5659  ;New Junction
 J1262                              4712.8936  ;New Junction
 J1264                              4714.7310  ;New Junction
 J1266                              4713.8125  ;New Junction
 J1268                              4713.3857  ;New Junction
 J1270                              5019.2915  ;New Junction
 J1272                              5053.0000  ;Harmony Ridge Culinary 1 plans
 J1274                              5133.7598  ;New Junction
 J1276                              5126.0000  ;New Junction
 J1278                              5125.8857  ;New Junction
 J128                               4769.8818  ;New Junction
 J1282                              5111.3516  ;Calibration point 4
 J1284                              5127.8213  ;New Junction
 J1286                              5114.0093  ;New Junction
 J1288                              5133.0713  ;New Junction
 J1290                              5110.2031  ;New Junction
 J1292                              5090.9775  ;New Junction
 J1294                              5115.1245  ;New Junction
 J1296                              5094.5864  ;New Junction
 J1298                              5104.1997  ;New Junction
 J130                               4756.0366  ;New Junction
 J1300                              5106.8896  ;New Junction
 J1302                              5093.4053  ;New Junction
 J1304                              5114.4355  ;New Junction
 J1306                              5108.5303  ;New Junction
 J1310                              5108.2021  ;New Junction
 J1312                              4846.6206  ;New Junction
 J1314                              4717.6836  ;New Junction
 J1316                              4716.1089  ;New Junction
 J1318                              4717.4541  ;New Junction
 J132                               4760.3018  ;New Junction
 J1320                              4721.0303  ;New Junction
 J1322                              4716.3057  ;New Junction
 J1324                              4722.8677  ;New Junction
 J1326                              4749.9673  ;New Junction
 J1328                              4749.0815  ;New Junction
 J1330                              4754.1992  ;New Junction
 J1332                              4719.6851  ;New Junction
 J1334                              4720.5708  ;New Junction
 J1336                              4719.6523  ;New Junction
 J1338                              4724.1470  ;New Junction
 J134                               4759.9736  ;New Junction
 J1340                              4724.2124  ;New Junction
 J1342                              4722.1460  ;New Junction
 J1344                              4722.9331  ;New Junction
 J1346                              4720.3413  ;New Junction
 J1348                              4712.3687  ;New Junction
 J1350                              4715.2559  ;New Junction
 J1352                              4711.7456  ;Fox Hollow
 J1354                              4713.2544  ;New Junction
 J1356                              4713.9438  ;New Junction
 J1358                              4711.0566  ;Fox Hollow
 J136                               4762.4673  ;New Junction
 J1360                              4712.3359  ;Fox Hollow
 J1362                              4712.6641  ;Fox Hollow
 J1364                              4713.9438  ;Fox Hollow
 J1366                              4712.3687  ;New Junction
 J1368                              4711.5483  ;New Junction
 J1370                              4713.7466  ;New Junction
 J1372                              4713.7139  ;New Junction
 J1374                              4713.8125  ;New Junction
 J1376                              4698.4580  ;New Junction
 J1378                              4712.5986  ;New Junction
 J138                               4780.5776  ;New Junction
 J1380                              4723.0972  ;New Junction
 J1382                              4722.3096  ;Holly Farm Estates A
 J1384                              4723.3599  ;New Junction
 J1386                              4714.4683  ;New Junction
 J1388                              4717.0605  ;New Junction
 J1390                              4716.9619  ;New Junction
 J1392                              4716.5024  ;New Junction
 J1394                              4716.9946  ;New Junction
 J1396                              4715.9780  ;New Junction
 J1398                              4795.1118  ;New Junction
 J14                                4819.1602  ;New Junction
 J140                               4749.3110  ;New Junction
 J1400                              4794.6196  ;Northridge
 J1402                              4797.2109  ;Northridge
 J1404                              4799.5078  ;Northridge
 J1406                              4809.0552  ;New Junction
 J1408                              4810.8926  ;New Junction
 J1410                              4808.2021  ;New Junction
 J1412                              4810.4985  ;New Junction
 J1414                              4815.8135  ;New Junction
 J1416                              5097.7690  ;Maple Bench
 J1418                              5079.3633  ;New Junction
 J142                               4792.8477  ;New Junction
 J1422                              5053.8057  ;New Junction
 J1424                              5062.1392  ;add dummy demand to show flow in Bench pipe
 J1426                              4711.0889  ;New Junction
 J1428                              4709.2192  ;Maple Grove Middle School
 J1430                              4711.1548  ;New Junction
 J1432                              4707.8081  ;Maple Grove Middle School
 J1434                              4707.9727  ;Maple Grove Middle School
 J1436                              4709.8428  ;Maple Grove Middle School
 J1438                              4709.6787  ;Maple Grove Middle School
 J144                               4792.7490  ;New Junction
 J1440                              4715.9448  ;New Junction
 J1442                              4716.1089  ;Maple Grove E
 J1444                              4716.4370  ;Maple Grove E
 J1446                              4716.8633  ;Maple Grove E
 J1448                              4717.1260  ;Maple Grove D
 J1450                              4715.2231  ;Sunrise Ranch C
 J1452                              4712.1392  ;Sunrise Ranch C
 J1454                              4716.2075  ;Sunrise Ranch C
 J1456                              4709.3179  ;Sunrise Ranch C
 J1458                              4708.8911  ;Sunrise Ranch R
 J146                               4852.8872  ;New Junction
 J1462                              4762.8936  ;Magnolia Lane
 J1464                              4761.4175  ;New Junction
 J1466                              4769.6851  ;Magnolia Lane
 J1468                              4842.2900  ;Twin Hollow B
 J1470                              4869.7178  ;New Junction
 J1472                              4868.3398  ;New Junction
 J1474                              4916.4000  ;Mapleton Village offsite water plans
 J1476                              4854.6914  ;Twin Hollow C
 J1478                              4709.7114  ;Maple Grove Middle School Lots
 J148                               4927.1982  ;New Junction
 J1480                              4711.2861  ;New Junction
 J1484                              4709.9082  ;New Junction
 J1486                              4709.5142  ;New Junction
 J1490                              5108.1362  ;New Junction
 J1492                              4723.3599  ;New Junction
 J1494                              4725.6562  ;Copperhead Estates
 J1496                              4725.4922  ;Copperhead Estates
 J1498                              4728.6089  ;Mapleton 340 Lake
 J150                               4939.1401  ;New Junction
 J1500                              4713.4844  ;New Junction
 J1502                              4715.1577  ;New Junction
 J1504                              4721.3579  ;New Junction
 J1506                              4721.0303  ;New Junction
 J1508                              4726.3779  ;New Junction
 J1510                              4727.0015  ;New Junction
 J1512                              4744.1602  ;New Junction
 J1514                              4738.3530  ;New Junction
 J1516                              4800.2627  ;Maple Mountain View D
 J1518                              4843.0449  ;Twin Hollow B
 J152                               4944.0615  ;New Junction
 J1520                              4714.9937  ;Harvest Park N
 J1522                              4714.4683  ;Harvest Park N
 J1524                              4715.5840  ;Harvest Park P
 J1526                              4714.5669  ;Harvest Park N
 J1528                              4714.6982  ;New Junction
 J1530                              4715.5840  ;New Junction
 J1532                              4715.7480  ;New Junction
 J1534                              4717.8149  ;New Junction
 J1536                              4718.8975  ;New Junction
 J1538                              4715.8467  ;New Junction
 J154                               4944.0288  ;New Junction
 J1540                              4716.2729  ;New Junction
 J1542                              4716.4370  ;New Junction
 J1544                              4714.5996  ;New Junction
 J1546                              4715.6167  ;Maple Grove D
 J1548                              4716.1089  ;New Junction
 J1550                              4714.3701  ;New Junction
 J1552                              4717.7822  ;New Junction
 J1554                              4713.0249  ;New Junction
 J1556                              4711.4502  ;New Junction
 J1558                              4712.8281  ;New Junction
 J156                               4940.0591  ;New Junction
 J1560                              4715.0918  ;Whiting Cove D
 J1562                              4711.3516  ;New Junction
 J1564                              4711.3188  ;New Junction
 J1566                              4712.8936  ;New Junction
 J1568                              4710.5972  ;New Junction
 J1570                              4712.3359  ;New Junction
 J1572                              4709.8428  ;New Junction
 J1574                              4712.5986  ;New Junction
 J1576                              4712.4014  ;New Junction
 J1578                              4713.6152  ;New Junction
 J158                               4937.1060  ;New Junction
 J1580                              4714.3047  ;Whisper Rock C
 J1582                              4717.0278  ;New Junction
 J1584                              4714.0420  ;New Junction
 J1586                              4714.0093  ;Whiting Cove B
 J1588                              4798.0000  ;New Junction
 J1590                              4742.7822  ;New Junction
 J1592                              4744.5210  ;New Junction
 J1594                              4742.9136  ;New Junction
 J1596                              4750.3608  ;New Junction
 J1598                              4728.0186  ;Hidden Lane Estates
 J16                                4828.3789  ;New Junction
 J1600                              4731.8242  ;Hidden Lane Estates
 J1602                              4718.3071  ;New Junction
 J1604                              4850.5576  ;Twin Hollow D
 J1606                              4859.4487  ;Twin Hollow D
 J1608                              4906.4961  ;Twin Hollow D
 J1610                              4722.8677  ;New Junction
 J1612                              4718.0449  ;Thatchill Estates
 J1614                              5122.5723  ;New Junction
 J1616                              4963.7139  ;New Junction
 J162                               4938.2222  ;New Junction
 J1620                              5189.5342  ;New Junction
 J1626                              5025.2295  ;New Junction
 J1628                              4840.9448  ;New Junction
 J1630                              4797.1787  ;New Junction
 J1632                              4793.1099  ;New Junction
 J1634                              4713.9761  ;New Junction
 J1636                              4713.1235  ;New Junction
 J1638                              4714.1074  ;New Junction
 J164                               4937.7627  ;New Junction
 J1640                              4708.6284  ;New Junction
 J1642                              4710.0063  ;New Junction
 J1644                              4714.5015  ;Harvest Park O
 J1646                              4715.5513  ;Harvest Park O
 J1648                              4715.4526  ;Harvest Park P
 J1650                              4717.0933  ;New Junction
 J1652                              4736.7124  ;New Junction
 J1654                              4756.0366  ;New Junction
 J1656                              4756.1025  ;New Junction
 J1658                              4713.0581  ;New Junction
 J166                               4936.6143  ;New Junction
 J1660                              4722.9985  ;New Junction
 J1662                              4719.5210  ;New Junction
 J1664                              4720.9971  ;New Junction
 J1666                              4715.0591  ;New Junction
 J1668                              4699.0488  ;New Junction
 J1670                              4713.0908  ;New Junction
 J1672                              4727.2637  ;New Junction
 J1674                              4789.2720  ;New Junction
 J1676                              4744.3569  ;New Junction
 J1678                              4711.8110  ;New Junction
 J168                               4930.7417  ;New Junction
 J1680                              4712.6641  ;New Junction
 J1682                              4710.4985  ;New Junction
 J1684                              4708.5962  ;New Junction
 J1686                              4752.4609  ;New Junction
 J1688                              4738.1890  ;New Junction
 J1690                              4765.1577  ;New Junction
 J1692                              4783.0381  ;New Junction
 J1694                              4873.6221
 J1696                              4873.5894  ;New Junction
 J1698                              4918.7334  ;Hidden Hollow Cove B
 J170                               4922.7363  ;New Junction
 J1700                              4931.6274
 J1702                              4741.0107  ;Seal Well Upstream
 J1704                              4741.8311  ;Seal Well downstream
 J1706                              4741.7324
 J1708                              4812.5000  ;Carnesecca upstream
 J1710                              4768.5366  ;Westwood upstream
 J1712                              5018.5698  ;Crowd upstream
 J1714                              4784.8000
 J1716                              4759.5000
 J1718                              4759.6000
 J172                               4925.3608  ;New Junction
 J1720                              4775.3000
 J1722                              4786.8270
 J1724                              4814.4066
 J1726                              4814.3917
 J1732                              4716.6338  ;added per 1/26/21 review with City
 J1734                              4737.6313  ;added per 1/26/21 review with City
 J1736                              4727.4609  ;added per 1/26/21 review with City
 J1738                              5082.0210  ;added per 1/26/21 review with City
 J174                               4923.3926  ;New Junction
 J1740                              4828.0681  ;New Junction
 J1742                              4742.0000  ;Mapleton Heights
 J1744                              4742.0000  ;Mapleton Heights
 J1746                              4743.0000  ;Mapleton Heights
 J1748                              4746.0000  ;Mapleton Heights
 J1750                              4744.0000  ;Mapleton Heights
 J1752                              4823.0000  ;Mapleton Heights
 J1754                              4836.2394
 J1756                              4809.0884  ;Carnesecca well to system
 J1758                              4809.2192
 J176                               5031.2993  ;New Junction
 J1760                              4809.2520  ;Carnesecca well to Upper zone
 J1764                              4714.5669  ;North Park
 J1772                              4727.0342  ;Mapleton City Park
 J1776                              4716.1743  ;Ira Allen Park
 J1778                              4713.1890  ;8th West Basin
 J178                               4937.6313  ;New Junction
 J1780                              4713.6200  ;Wing Point Park
 J1782                              4740.3872  ;Calibration point 1
 J1784                              4809.5801  ;Calibration point 2
 J1786                              4762.1719  ;Calibration point 3
 J1788                              4866.8311  ;Calibration point 5
 J1790                              4809.6787  ;Calibration point 6
 J1792                              4858.7598  ;Calibration point 7
 J1794                              4710.9253  ;Calibration point 9
 J1796                              4717.2900  ;Maple Grove D
 J1798                              4716.4043  ;Harvest Park P
 J18                                4830.2822  ;New Junction
 J1800                              4715.8794  ;Harvest Park P
 J1804                              4790.4526  ;Lindley
 J1812                              4815.4485  ;New
 J1814                              4817.9790  ;Collard
 J1816                              4814.6042  ;Dalllins Subdivision A
 J1818                              4813.1241  ;Dalllins Subdivision A
 J182                               4896.5552  ;New Junction
 J1820                              4811.6537  ;Dalllins Subdivision A
 J1822                              4797.2727  ;New
 J1824                              4798.4810  ;Maple Mountain View D
 J1826                              4793.2412  ;Mee Estates
 J1828                              4795.1262  ;New
 J1830                              4790.3872  ;Kent Evans
 J1832                              4800.6890  ;Zimmerman
 J1834                              4868.9307  ;Maple Hills Estates A
 J1838                              4817.8149  ;Vineyard @ Maple Canyon
 J184                               4886.2861  ;New Junction
 J1840                              4764.0093  ;Diamond Corner
 J1842                              4768.4712  ;New
 J1844                              4767.3555  ;Diamond Fields
 J1846                              4767.3228  ;Diamond Fields
 J1848                              4859.0225  ;New
 J1850                              4859.0225  ;Ball Subdivision
 J1852                              4818.9629  ;New
 J1854                              4816.5024  ;Kendall
 J1856                              4766.4697  ;Maple Haven
 J1858                              4740.4199  ;Sugar Dance
 J186                               4872.5396  ;New Junction
 J1860                              4747.2441  ;New
 J1862                              4746.8833  ;Maple View Estates B
 J1864                              4735.4331  ;Whitehorse Estates
 J1866                              4738.0581  ;Whitehorse Estates
 J1868                              4738.6812  ;Whitehorse Estates
 J1870                              4742.3555  ;New
 J1872                              4741.8960  ;The Estates at Mapleton
 J1874                              4743.0122  ;The Estates at Mapleton
 J1876                              4746.6661  ;New
 J1878                              4746.4238  ;New
 J188                               4909.8428  ;New Junction
 J1880                              4743.9634  ;Hardman
 J1882                              4743.9302  ;New
 J1884                              4742.1919  ;Blackett
 J1886                              4729.7491  ;Hidden Lane Estates
 J1888                              4784.3833  ;Lindley
 J1890                              4787.9922  ;Lindley
 J1892                              4789.0747  ;Lindley
 J1894                              4741.3389  ;Perrero
 J1896                              4719.7677  ;New
 J1898                              4719.7293  ;New
 J190                               4935.7612  ;New Junction
 J1900                              4718.3071  ;Francis
 J1902                              4719.1929  ;Francis E
 J1904                              4722.8141  ;Holly Farm Estates A
 J1906                              4714.7977  ;Maple Valley Estates
 J1908                              4719.9805  ;Whiting Farm
 J1910                              4717.3228  ;Whiting Farm
 J1912                              4718.4058  ;Whiting Farm
 J1914                              4716.8306  ;Whiting Farm
 J1916                              4717.5527  ;Whiting Farm
 J1918                              4724.3765  ;Whiting Farm C
 J192                               4784.3833  ;New Junction
 J1920                              4720.6362  ;New
 J1922                              4722.6770  ;Walter Farms
 J1924                              4732.9067  ;New
 J1926                              4729.7573  ;Walter Farms
 J1928                              4718.8652  ;Whiting Farm B
 J1930                              4718.8652  ;Whiting Farm B
 J1932                              4716.5352  ;Whiting Farm B
 J1934                              4715.3213  ;Whiting Farm B
 J1936                              4715.2886  ;Whiting Farm B
 J1938                              4716.0430  ;Whiting Farm B
 J1940                              4714.3374  ;New
 J1942                              4713.5825  ;Bryson Strong
 J1946                              4713.7798  ;New
 J1948                              4713.8452  ;Bentley Brook
 J1950                              4712.4014  ;Bluth
 J1958                              4712.9268  ;Whisper Rock C
 J196                               4790.0591  ;New Junction
 J1962                              4711.6797  ;Fox Hollow
 J1964                              4711.3188  ;Fox Hollow Townhomes
 J1966                              4709.8428  ;Dignity Care
 J1968                              4711.1875  ;Dignity Care
 J1970                              4707.8413  ;Dignity Care
 J1972                              4711.5811  ;Alvery Dr Office Warehouse
 J1974                              4709.4160  ;New
 J1976                              4709.4160  ;New
 J198                               4797.8677  ;New Junction
 J1984                              4712.8936  ;New
 J1988                              4714.0420  ;New
 J1992                              4716.0762  ;New
 J20                                4831.5947  ;New Junction
 J200                               4872.4082  ;New Junction
 J2008                              4725.8530  ;New
 J2010                              4719.3242  ;Whiting Farm
 J2012                              4722.7363  ;Whiting Farm C
 J2014                              4721.7847  ;Whiting Farm B
 J2016                              4724.7046  ;Whiting Farm C
 J2018                              4733.0054  ;New
 J202                               4885.6958  ;New Junction
 J2020                              4734.2520  ;Whitehorse Estates
 J2022                              4743.1089  ;New
 J2024                              4796.6538  ;Mee Estates
 J2028                              4719.3056  ;Thatchill Estates
 J2030                              4724.1608  ;Copperhead Estates
 J2032                              4713.1092  ;Harvest Park M
 J2034                              4712.9492  ;Harvest Park M
 J2036                              4714.8983  ;Harvest Park O
 J2038                              4715.5636  ;Harvest Park O
 J204                               4859.8096  ;New Junction
 J2040                              4714.7259  ;Harvest Park N
 J2042                              4714.7649  ;Harvest Park N
 J2044                              4715.2404  ;Harvest Park O
 J2046                              4715.1847  ;Harvest Park O
 J2048                              4712.7295  ;New
 J2050                              4709.8428  ;Whiting Cove E
 J2052                              4710.0396  ;Whiting Cove E
 J2054                              4711.5811  ;Whiting Cove E
 J2056                              4714.1074  ;New
 J2058                              4712.4346  ;Whiting Cove F
 J206                               4830.0854  ;New Junction
 J2060                              4714.8017  ;Whiting Cove D
 J2062                              4714.0271  ;New
 J2064                              4713.2412  ;Whiting Cove B
 J2066                              4715.5370  ;Whiting Cove B
 J2068                              4711.9648  ;Emerald Estates D
 J2070                              4712.5986  ;New
 J2072                              4711.9092  ;Young
 J2074                              4720.8008  ;New
 J2076                              4720.5054  ;New
 J2078                              4718.2085  ;Maple Fields
 J208                               4878.0181  ;New Junction
 J2080                              4718.8652  ;Maple Fields
 J2082                              4719.8818  ;New
 J2084                              4719.1929  ;Harness
 J2086                              4721.2598  ;New
 J2088                              4720.0459  ;Sherman Farms
 J2090                              4725.0327  ;New
 J2092                              4724.3110  ;Valley View Estates C
 J2094                              4751.9028  ;Maple Vale A
 J2096                              4756.2007  ;Maple Vale A
 J2098                              4755.7327  ;New
 J210                               4940.0000  ;4940 at top of hill
 J2100                              4790.6172  ;Preserve E
 J2104                              4801.5747  ;Preserve E
 J2108                              4710.5972  ;New
 J2110                              4709.5801  ;Harvest Park Office
 J2112                              4710.7612  ;New
 J2114                              4710.9580  ;Sunrise Ranch A
 J2124                              4711.5811  ;Sunrise Ranch C
 J2126                              4716.1151  ;Sunrise Ranch D
 J2128                              4716.0108  ;Sunrise Ranch D
 J2130                              4715.8739  ;Sunrise Ranch D
 J2132                              4715.6053  ;Sunrise Ranch D
 J2134                              4715.8467  ;Sunrise Ranch D
 J2136                              4715.4858  ;Sunrise Ranch D
 J2138                              4712.0078  ;Sunrise Ranch E
 J214                               4854.8887  ;New Junction
 J2140                              4713.3857  ;Sunrise Ranch F
 J216                               4823.9502  ;New Junction
 J218                               4846.5552  ;New Junction
 J2182                              4715.9448  ;Maple Grove G
 J2184                              4719.7832  ;Maple Grove G
 J2188                              4714.7642  ;Maple Grove G
 J2190                              4716.2075  ;New
 J2192                              4716.5162  ;Maple Grove D
 J2194                              4714.6000  ;Maple Grove F
 J2196                              4716.6400  ;Skyridge Estates
 J22                                4836.0239  ;New Junction
 J220                               4874.9673  ;New Junction
 J2206                              4748.0000  ;Mapleton Heights
 J2210                              4747.0000  ;Mapleton Heights
 J2212                              4740.0000  ;Mapleton Heights
 J2214                              4740.0000  ;New
 J2216                              4747.0000  ;New
 J2218                              4755.0000  ;Mapleton Heights
 J222                               4875.0000  ;New Junction
 J2222                              4747.8350  ;Mapleton Heights C
 J2226                              4743.0000  ;Mapleton Heights B
 J2232                              4749.9673  ;Mapleton Heights C
 J2234                              4756.0000  ;Mapleton Heights C
 J224                               4824.3765  ;New Junction
 J2242                              4749.3110  ;Mapleton Heights C
 J2246                              4747.5068  ;Mapleton Heights D
 J2248                              4764.0000  ;New
 J2250                              4756.0000  ;Mapleton Village A
 J2252                              4764.0000  ;Mapleton Village A
 J2258                              4755.0000  ;Mapleton Village A
 J226                               4819.8818  ;New Junction
 J2260                              4754.0000  ;Mapleton Village A
 J2264                              4756.0000  ;Mapleton Village A
 J2266                              4755.0000  ;Mapleton Village A
 J2274                              4758.0000  ;Mapleton Village A
 J2276                              4755.0000  ;Mapleton Village A
 J2278                              4757.0000  ;Mapleton Village A
 J228                               4838.1235  ;New Junction
 J2280                              4760.4331  ;Mapleton Village A
 J2282                              4761.0000  ;Mapleton Village A
 J2284                              4759.0000  ;Mapleton Village B
 J2286                              4760.0000  ;Mapleton Village C
 J2290                              4762.0000  ;Mapleton Village B
 J230                               4842.8149  ;New Junction
 J2306                              4779.0000  ;Mapleton Village B
 J2308                              4795.0000  ;Mapleton Village B
 J2310                              4788.0000  ;Mapleton Village B
 J232                               4797.8018  ;New Junction
 J2322                              4812.0000  ;Mapleton Village B
 J2324                              4822.0000  ;Mapleton Village B
 J2326                              4826.0000  ;Mapleton Village B
 J2330                              4799.4097  ;New
 J2332                              4848.5050  ;New
 J2334                              4845.9498  ;Twin Hollow B
 J2336                              4840.1904  ;Twin Hollow B
 J2338                              4901.2495  ;Hidden Hollow A
 J234                               4799.5078  ;New Junction
 J2340                              4832.9395  ;Twin Hollow B
 J2342                              4848.4580  ;Twin Hollow F
 J2344                              4865.5840  ;Twin Hollow F
 J2346                              4880.2163  ;Twin Hollow F
 J2348                              4847.3579  ;Twin Hollow C
 J2350                              4897.5068  ;Twin Hollow D
 J2352                              4892.6257  ;Twin Hollow D
 J2354                              4874.7373  ;Twin Hollow B
 J2356                              4860.0391  ;Twin Hollow D
 J236                               4799.8032  ;New Junction
 J2360                              4905.6758  ;Hidden Hollow Cove B
 J2366                              4918.6353  ;Hidden Hollow Cove B
 J2368                              4858.3330  ;Hidden Hollow A
 J2370                              4936.6470  ;Hidden Hollow Cove C
 J2372                              4966.0000  ;Hidden Hollow Cove D - elev MVill offsite water
 J2374                              4985.2690  ;Hidden Hollow Cove D
 J2376                              4922.7000  ;Hidden Hollow Cove D - elev M Village offsite water
 J2378                              4918.4000  ;Hidden Hollow Cove C
 J238                               4805.5776  ;New Junction
 J2380                              5030.0000  ;Maple Bench
 J2382                              4908.7598  ;Clegg Canyon A
 J2384                              4910.8594  ;Clegg Canyon A
 J2386                              4903.2045  ;New
 J24                                4832.1523  ;New Junction
 J240                               4773.9502  ;New Junction
 J2412                              4771.8833  ;Garfield Estates
 J2416                              4713.1910  ;Whisper Rock C
 J2418                              4708.9238  ;Emerald Corner
 J242                               4769.4224  ;New Junction
 J2420                              4737.2378  ;New
 J2422                              4736.1875  ;Watkins
 J2424                              4756.1680  ;Whiting Fields
 J2428                              4759.9082  ;New
 J2432                              5088.0000  ;Maple Bench
 J2434                              5022.2441  ;Maple Bench
 J2436                              4887.6968  ;Maple Bench
 J2438                              4842.1919  ;Maple Bench
 J244                               4764.0747  ;New Junction
 J2440                              5073.0645  ;Maple Bench
 J2442                              4918.5371  ;Maple Bench
 J2444                              4910.1050  ;Maple Bench
 J2450                              5101.3452  ;Maple Bench
 J2454                              4976.9683  ;Maple Bench
 J246                               4759.6128  ;New Junction
 J2460                              4713.4189  ;Sunrise Ranch J
 J2476                              4948.0000  ;Mapleton Village offsite water line
 J2478                              4948.0000  ;Mapleton Village offsite water line
 J248                               4763.3203  ;New Junction
 J2480                              4922.8345  ;Hidden Hollow Cove D
 J2482                              4862.2705  ;Hidden Hollow A
 J2486                              4923.7861  ;Clegg Canyon connection
 J2488                              4902.8872  ;Clegg Canyon connection
 J2492                              4923.0000  ;Clegg Canyon
 J2494                              4903.0000  ;Clegg Canyon
 J2496                              4903.0000  ;Clegg Canyon
 J2498                              4900.0000  ;Clegg 400 N PRV Down
 J250                               4774.2129  ;New Junction
 J2500                              4900.0000  ;Clegg 400 N PRV Up
 J2506                              4765.0000  ;Garfield Estates Lot 2
 J2508                              4788.0000  ;Mountain View Point
 J2512                              4764.0000  ;Mapleton Heights Plat D
 J2514                              4762.0000  ;Mapleton Heights Plat #
 J2516                              4898.0000  ;Eagle Court PRV
 J252                               4780.3149  ;New Junction
 J2532                              4786.5468  ;Mapleton Heights FUTURE estimated demand
 J2536                              4822.0000  ;Mapleton Heights future PRV down
 J2538                              4822.0000  ;Mapleton Heights future PRV up
 J254                               4766.4043  ;New Junction
 J2542                              4797.3755  ;800 W PRV down
 J2544                              4802.5591  ;800 W PRV up
 J2552                              4820.0000  ;Wren Meadows Plat A
 J2554                              4816.0000  ;Wren Meadows Plat A
 J2558                              4751.0000  ;Whiting Fields
 J256                               4756.7256  ;New Junction
 J2568                              4728.4121  ;Whiting Homestead Future
 J2570                              4727.3950  ;Whiting Homestead Future
 J2572                              4733.1367  ;Whiting Homestead Future
 J2574                              4730.1509  ;Whiting Homestead Future
 J2576                              4960.2036  ;Hidden Hollow Cove Plat E
 J2578                              4974.0000  ;Hidden Hollow Cove Plat E - elev MVillage offsite water
 J258                               4774.2783  ;New Junction
 J2582                              4927.2000  ;Mapleton Village offsite water plans
 J2592                              4927.2000  ;Mapleton Heights - M Village offsite water plans
 J2596                              4800.0000  ;Perry Hollow mid-block
 J26                                4835.3350  ;New Junction
 J260                               4785.0063  ;New Junction
 J2616                              4714.5996  ;Hjorth
 J2618                              4820.0000
 J262                               4788.0576  ;New Junction
 J2620                              4888.1890
 J2622                              4897.0000  ;Quiet Meadow road
 J2624                              4819.5135  ;New Junction
 J2626                              4860.1524  ;New Junction
 J2628                              4917.6226  ;Clegg Canyon A
 J2630                              4933.2808  ;Clegg Canyon A
 J2636                              4715.4874  ;Pommerening
 J264                               4767.3555  ;New Junction
 J2640                              4858.0000  ;Harmony Ridge matches MVillage offsite water
 J266                               4777.6572  ;New Junction
 J268                               4775.7876  ;New Junction
 J270                               4779.4292  ;New Junction
 J272                               4771.3584  ;New Junction
 J274                               4777.5259  ;New Junction
 J2752                              4984.0000  ;Mapleton Village offsite water
 J2754                              4831.0000  ;Mapleton Village offsite water
 J2756                              4963.7000  ;Mapleton Village offsite water
 J276                               4774.4097  ;New Junction
 J278                               4776.4766  ;New Junction
 J28                                4832.2178  ;New Junction
 J280                               4785.1050  ;New Junction
 J2806                              4798.5000  ;Firehydrant Location
 J2808                              4805.0000
 J2810                              4846.1770
 J2812                              4836.1280
 J2814                              4805.0000
 J2816                              4895.2440  ;Quiet Meadow Drive near fire hydrant
 J2818                              4890.0000  ;Quiet Meadow near meter
 J282                               4777.5591  ;New Junction
 J2820                              4925.0000  ;Quiet Meadow at highest house
 J284                               4701.8374  ;New Junction
 J2846                              4756.5220  ;Buildout Model
 J2852                              4742.8373  ;Buildout Model
 J286                               4714.6328  ;New Junction
 J2860                              4716.1589  ;Buildout Model
 J2862                              4742.1806  ;Buildout Model
 J2868                              4869.7178  ;Buildout Model
 J2878                              4698.1373
 J288                               4718.4712  ;New Junction
 J2880                              5095.5146
 J2886                              4774.1805
 J2888                              4766.5307
 J2890                              4758.5268
 J2892                              4782.6213
 J2894                              4774.0961
 J2898                              4726.8701
 J290                               4718.6353  ;New Junction
 J2900                              4743.9302
 J2902                              4795.7021
 J2904                              4788.4177
 J292                               4716.3057  ;Harts Park
 J294                               4718.7339  ;New Junction
 J296                               4733.4976  ;New Junction
 J298                               4713.5498  ;New Junction
 J30                                4798.4907  ;New Junction
 J300                               4718.6353  ;New Junction
 J302                               4715.0264  ;New Junction
 J304                               4717.7495  ;New Junction
 J306                               4718.9961  ;New Junction
 J308                               4717.8149  ;New Junction
 J310                               4733.2676  ;New Junction
 J312                               4734.0225  ;New Junction
 J314                               4733.6611  ;New Junction
 J316                               4734.4160  ;New Junction
 J318                               4736.2861  ;New Junction
 J32                                4790.5840  ;New Junction
 J320                               4743.8975  ;New Junction
 J322                               4739.5342  ;New Junction
 J324                               4730.5117  ;New Junction
 J326                               4739.4028  ;New Junction
 J328                               4732.5132  ;New Junction
 J330                               4736.1221  ;New Junction
 J332                               4736.2202  ;New Junction
 J334                               4726.6406  ;New Junction
 J336                               4731.0698  ;New Junction
 J338                               4721.7192  ;New Junction
 J34                                4810.1377  ;New Junction
 J340                               4713.4844  ;New Junction
 J342                               4738.9761  ;New Junction
 J344                               4739.0747  ;New Junction
 J346                               4731.3320  ;New Junction
 J348                               4739.1406  ;New Junction
 J350                               4746.1284  ;New Junction
 J352                               4784.3179  ;New Junction
 J354                               4784.5801  ;New Junction
 J356                               4748.6221  ;New Junction
 J358                               4764.1733  ;New Junction
 J36                                4812.3691  ;Carnesecca downstream
 J360                               4748.6221  ;New Junction
 J362                               4759.9736  ;New Junction
 J364                               4766.4697  ;New Junction
 J366                               4762.3687  ;New Junction
 J368                               4760.8926  ;New Junction
 J370                               4755.7417  ;New Junction
 J372                               4756.8242  ;New Junction
 J374                               4760.9253  ;New Junction
 J376                               4733.3003  ;New Junction
 J378                               4760.8594  ;New Junction
 J38                                4788.0908  ;New Junction
 J380                               4763.6152  ;New Junction
 J382                               4766.1416  ;New Junction
 J384                               4760.9253  ;New Junction
 J386                               4760.8926  ;New Junction
 J388                               4744.1602  ;New Junction
 J390                               4788.9111  ;New Junction
 J392                               4785.6299  ;New Junction
 J394                               4755.5117  ;New Junction
 J396                               4755.7417  ;New Junction
 J398                               4871.1284  ;New Junction
 J40                                4782.1191  ;New Junction
 J400                               4784.4160  ;New Junction
 J402                               4784.3179  ;New Junction
 J404                               4784.6455  ;New Junction
 J406                               4759.6455  ;New Junction
 J408                               4764.7642  ;New Junction
 J410                               4759.5474  ;New Junction
 J412                               4758.5630  ;New Junction
 J414                               4753.3140  ;New Junction
 J416                               4769.3896  ;New Junction
 J418                               4764.3374  ;New Junction
 J42                                4769.9146  ;New Junction
 J420                               4755.9712  ;New Junction
 J422                               4753.9370  ;New Junction
 J424                               4757.6113  ;New Junction
 J426                               4807.9067  ;New Junction
 J428                               4809.7441  ;New Junction
 J430                               4822.8345  ;New Junction
 J432                               4828.6748  ;New Junction
 J434                               4828.4775  ;New Junction
 J436                               4825.9185  ;New Junction
 J438                               4839.7642  ;New Junction
 J44                                4760.7612  ;New Junction
 J440                               4860.3672  ;New Junction
 J442                               4881.7256  ;New Junction
 J444                               4897.6050  ;New Junction
 J446                               4818.8979  ;New Junction
 J448                               4823.1299  ;New Junction
 J450                               4824.5737  ;New Junction
 J452                               4829.5933  ;New Junction
 J454                               4820.0791  ;New Junction
 J456                               4839.9937  ;New Junction
 J458                               4843.6021  ;New Junction
 J46                                4755.0195  ;New Junction
 J460                               4843.5693  ;New Junction
 J462                               4842.4541  ;New Junction
 J464                               4891.5684  ;New Junction
 J468                               4846.2930  ;New Junction
 J470                               4846.5879  ;New Junction
 J472                               4801.2471  ;New Junction
 J474                               4807.7759  ;New Junction
 J476                               4805.6431  ;New Junction
 J478                               4809.6455  ;New Junction
 J48                                4776.8042  ;New Junction
 J480                               4792.5854  ;New Junction
 J482                               4806.2661  ;New Junction
 J484                               4808.8252  ;New Junction
 J486                               4803.7729  ;New Junction
 J488                               4800.9512  ;New Junction
 J490                               4804.1992  ;New Junction
 J492                               4800.7549  ;New Junction
 J494                               4792.0933  ;New Junction
 J496                               4797.5068  ;New Junction
 J498                               4891.8311  ;New Junction
 J50                                4756.1025  ;New Junction
 J500                               4923.6875  ;New Junction
 J502                               4874.9346  ;New Junction
 J504                               4898.4253  ;New Junction
 J506                               4745.1118  ;New Junction
 J508                               4727.6904  ;New Junction
 J510                               4740.6494  ;New Junction
 J512                               4756.2334  ;New Junction
 J514                               4733.2676  ;New Junction
 J516                               4757.2178  ;New Junction
 J518                               4764.3047  ;New Junction
 J52                                4808.9570  ;New Junction
 J520                               4780.8398  ;New Junction
 J522                               4768.5366  ;New Junction
 J524                               4772.1787  ;New Junction
 J526                               4768.4058  ;New Junction
 J528                               4790.4526  ;New Junction
 J530                               4771.0957  ;New Junction
 J532                               4852.3950  ;New Junction
 J536                               4830.0854  ;New Junction
 J538                               4788.4189  ;New Junction
 J54                                4806.5288  ;New Junction
 J540                               4835.0000  ;New Junction
 J542                               4748.6548  ;New Junction
 J544                               4788.1890  ;New Junction
 J546                               4748.6880  ;New Junction
 J548                               4788.1562  ;New Junction
 J550                               4721.3257  ;New Junction
 J552                               4720.6035  ;New Junction
 J554                               4726.1157  ;New Junction
 J556                               4723.8843  ;New Junction
 J558                               4727.7231  ;New Junction
 J56                                4827.5591  ;New Junction
 J560                               4740.0918  ;New Junction
 J562                               4739.4355  ;New Junction
 J564                               4737.2378  ;New Junction
 J566                               4757.1523  ;New Junction
 J568                               4713.4189  ;New Junction
 J570                               4717.9790  ;New Junction
 J572                               4721.2930  ;New Junction
 J574                               4715.7153  ;New Junction
 J576                               4719.6523  ;New Junction
 J578                               4717.9790  ;New Junction
 J58                                4814.0000  ;New Junction
 J580                               4719.7178  ;New Junction
 J582                               4718.0771  ;New Junction
 J584                               4714.1733  ;New Junction
 J586                               4808.7271  ;New Junction
 J588                               4735.7280  ;New Junction
 J590                               4740.1250  ;New Junction
 J592                               4750.3281  ;New Junction
 J594                               4718.0449  ;New Junction
 J596                               4725.7549  ;New Junction
 J598                               4728.9697  ;New Junction
 J600                               4737.9268  ;New Junction
 J602                               4744.7505  ;New Junction
 J604                               4737.8281  ;New Junction
 J606                               4740.0264  ;New Junction
 J608                               4739.9937  ;New Junction
 J610                               4738.1235  ;New Junction
 J612                               4737.4341  ;New Junction
 J614                               4725.4922  ;New Junction
 J616                               4715.5186  ;New Junction
 J618                               4718.7339  ;New Junction
 J62                                4817.4868  ;New Junction
 J620                               4718.7339  ;New Junction
 J622                               4720.3086  ;New Junction
 J624                               4723.4907  ;New Junction
 J626                               4737.4014  ;New Junction
 J628                               4752.6245  ;New Junction
 J630                               4719.8491  ;New Junction
 J632                               4713.1890  ;New Junction
 J634                               4711.8442  ;New Junction
 J636                               4709.7114  ;New Junction
 J638                               4711.3516  ;New Junction
 J64                                4817.0000  ;New Junction
 J640                               4710.5317  ;New Junction
 J642                               4709.7114  ;New Junction
 J644                               4710.1377  ;New Junction
 J646                               4710.1377  ;New Junction
 J648                               4710.4331  ;New Junction
 J650                               4710.4331  ;New Junction
 J652                               4719.2588  ;New Junction
 J654                               4710.3345  ;New Junction
 J656                               4713.0249  ;New Junction
 J658                               4711.7129  ;New Junction
 J66                                4828.0000  ;New Junction
 J660                               4710.1709  ;New Junction
 J662                               4711.7129  ;New Junction
 J664                               4710.2363  ;New Junction
 J666                               4712.1064  ;New Junction
 J668                               4710.7612  ;New Junction
 J670                               4711.0889  ;New Junction
 J672                               4710.2363  ;New Junction
 J674                               4710.2036  ;New Junction
 J676                               4714.1074  ;New Junction
 J678                               4712.5986  ;New Junction
 J68                                4805.4790  ;New Junction
 J680                               4713.6812  ;New Junction
 J682                               4712.3687  ;New Junction
 J684                               4709.9409  ;New Junction
 J686                               4711.3848  ;New Junction
 J688                               4710.5645  ;New Junction
 J690                               4712.9922  ;New Junction
 J692                               4722.6050  ;New Junction
 J694                               4714.0747  ;New Junction
 J696                               4714.9604  ;New Junction
 J698                               4712.9922  ;New Junction
 J70                                4802.4277  ;New Junction
 J700                               4714.5996  ;New Junction
 J702                               4714.2720  ;New Junction
 J704                               4715.1250  ;New Junction
 J706                               4714.4683  ;New Junction
 J708                               4713.7466  ;New Junction
 J710                               4713.8125  ;New Junction
 J712                               4713.1890  ;New Junction
 J714                               4714.1406  ;New Junction
 J716                               4716.0103  ;New Junction
 J718                               4716.6338  ;New Junction
 J72                                4789.0747  ;New Junction
 J720                               4715.0264  ;New Junction
 J722                               4711.9751  ;New Junction
 J724                               4712.3032  ;New Junction
 J726                               4712.9595  ;New Junction
 J728                               4710.9580  ;Teasdales basin?
 J730                               4715.3213  ;New Junction
 J732                               4713.2544  ;New Junction
 J734                               4709.8101  ;New Junction
 J736                               4713.5171  ;New Junction
 J738                               4713.3857  ;New Junction
 J74                                4793.5693  ;New Junction
 J740                               4712.1392  ;New Junction
 J742                               4713.0581  ;New Junction
 J744                               4721.8174  ;New Junction
 J746                               4727.3623  ;New Junction
 J748                               4732.6118  ;New Junction
 J750                               4729.2651  ;New Junction
 J752                               4727.2310  ;New Junction
 J754                               4722.3755  ;New Junction
 J756                               4724.7046  ;New Junction
 J758                               4729.8228  ;New Junction
 J76                                4802.4937  ;New Junction
 J760                               4723.9829  ;New Junction
 J762                               4726.9028  ;New Junction
 J764                               4712.8936  ;New Junction
 J766                               4711.4175  ;Harvest Park Building
 J768                               4713.2544  ;New Junction
 J770                               4711.5156  ;New Junction
 J772                               4714.4355  ;New Junction
 J774                               4714.9277  ;New Junction
 J776                               4714.4683  ;New Junction
 J778                               4713.0249  ;New Junction
 J78                                4801.4106  ;New Junction
 J780                               4713.2544  ;New Junction
 J782                               4712.8608  ;New Junction
 J784                               4713.2217  ;New Junction
 J786                               4714.3701  ;New Junction
 J788                               4714.5342  ;New Junction
 J790                               4713.5498  ;New Junction
 J792                               4713.6152  ;New Junction
 J794                               4712.9268  ;New Junction
 J796                               4714.3047  ;New Junction
 J798                               4711.8110  ;New Junction
 J80                                4795.1445  ;New Junction
 J800                               4714.6328  ;New Junction
 J802                               4714.7964  ;New Junction
 J804                               4712.6973  ;New Junction
 J806                               4712.7622  ;New Junction
 J808                               4712.9922  ;New Junction
 J810                               4712.7954  ;Harvest Park (park)
 J812                               4714.1733  ;New Junction
 J814                               4712.8608  ;New Junction
 J816                               4714.1733  ;New Junction
 J818                               4714.3374  ;New Junction
 J82                                4793.3730  ;New Junction
 J820                               4712.8608  ;New Junction
 J822                               4714.2388  ;New Junction
 J824                               4714.2061  ;New Junction
 J826                               4713.9438  ;New Junction
 J828                               4715.1899  ;New Junction
 J830                               4710.3672  ;New Junction
 J832                               4712.7954  ;New Junction
 J834                               4712.8608  ;New Junction
 J836                               4714.3047  ;New Junction
 J838                               4712.8936  ;New Junction
 J84                                4796.0630  ;New Junction
 J840                               4710.0396  ;New Junction
 J842                               4710.1709  ;New Junction
 J844                               4710.7280  ;New Junction
 J846                               4711.6797  ;New Junction
 J848                               4710.9580  ;New Junction
 J850                               4709.0879  ;New Junction
 J852                               4715.1250  ;New Junction
 J854                               4713.3203  ;New Junction
 J856                               4709.1206  ;New Junction
 J858                               4709.3506  ;New Junction
 J86                                4795.0459  ;New Junction
 J860                               4713.3857  ;New Junction
 J862                               4712.2705  ;New Junction
 J864                               4712.1719  ;New Junction
 J866                               4715.6821  ;New Junction
 J870                               4715.5840  ;New Junction
 J872                               4701.8701  ;New Junction
 J874                               4710.9580  ;New Junction
 J876                               4708.5630  ;New Junction
 J878                               4698.2612  ;New Junction
 J88                                4788.4844  ;New Junction
 J880                               4694.6851  ;New Junction
 J882                               4690.1899  ;New Junction
 J884                               4714.9277  ;New Junction
 J886                               4715.4526  ;New Junction
 J888                               4716.4370  ;New Junction
 J890                               4718.2417  ;New Junction
 J892                               4779.3306  ;New Junction
 J894                               4786.9751  ;New Junction
 J896                               4785.0063  ;New Junction
 J898                               4794.4883  ;New Junction
 J90                                4789.3047  ;New Junction
 J900                               4752.1323  ;New Junction
 J902                               4785.9580  ;New Junction
 J904                               4784.9736  ;New Junction
 J906                               4790.6821  ;New Junction
 J908                               4779.6587  ;Preserve E
 J910                               4751.0825  ;New Junction
 J912                               4743.3398  ;New Junction
 J914                               4760.8267  ;New Junction
 J916                               4766.1089  ;New Junction
 J918                               4762.5327  ;New Junction
 J92                                4791.1089  ;New Junction
 J920                               4735.5972  ;New Junction
 J922                               4763.0908  ;New Junction
 J924                               4802.4609  ;Preserve E
 J926                               4801.9028  ;New Junction
 J928                               4780.0195  ;New Junction
 J930                               4828.0840  ;New Junction
 J932                               4840.7480  ;New Junction
 J934                               4818.8979  ;New Junction
 J936                               4830.1182  ;New Junction
 J938                               4862.6641  ;New Junction
 J94                                4781.6929  ;New Junction
 J940                               4820.7349  ;New Junction
 J942                               4807.5132  ;New Junction
 J944                               4809.0225  ;New Junction
 J946                               4797.7690  ;New Junction
 J948                               4783.4976  ;New Junction
 J950                               4745.9644  ;New Junction
 J952                               4773.9502  ;New Junction
 J954                               4781.5288  ;New Junction
 J956                               4798.4253  ;New Junction
 J958                               4819.1929  ;New Junction
 J96                                4790.1904  ;New Junction
 J960                               4726.5752  ;New Junction
 J962                               4802.4937  ;New Junction
 J964                               4722.5396  ;New Junction
 J966                               4787.5000  ;New Junction
 J968                               4778.7075  ;New Junction
 J970                               4763.5503  ;New Junction
 J972                               4808.5962  ;New Junction
 J974                               4818.8320  ;New Junction
 J976                               4726.6079  ;New Junction
 J978                               4728.0186  ;Historical Square
 J98                                4783.9238  ;New Junction
 J980                               4723.8843  ;New Junction
 J982                               4721.4238  ;New Junction
 J984                               4736.0239  ;New Junction
 J986                               4737.4014  ;New Junction
 J988                               4711.2861  ;New Junction
 J990                               4712.9922  ;New Junction
 J992                               4717.1919  ;New Junction
 J994                               4713.6152  ;New Junction
 J996                               4715.5513  ;New Junction
 J998                               4714.4355  ;New Junction
 PMP_BOOSTER1_NU                    4932.1519  ;Connecting junction
 PMP_BOOSTER1_ND                    4932.1519  ;Connecting junction
 PMP_BOOSTER2_NU                    4936.8110  ;Connecting junction
 PMP_BOOSTER2_ND                    4936.8110  ;Connecting junction
 PMP_CARNESECCA_NU                  4813.0000  ;Connecting junction
 PMP_CARNESECCA_ND                  4813.0000  ;Connecting junction
 PMP_CROWD_NU                       5019.0000  ;Connecting junction
 PMP_CROWD_ND                       5019.0000  ;Connecting junction
 PMP_SEAL_NU                        4741.0000  ;Connecting junction
 PMP_SEAL_ND                        4741.0000  ;Connecting junction
 PMP_WESTWOOD_NU                    4769.0000  ;Connecting junction
 PMP_WESTWOOD_ND                    4769.0000  ;Connecting junction
 CONTROL_MAPLEBENCH_NU              5025.8530  ;Connecting junction
 CONTROL_MAPLEBENCH_ND              5025.8530  ;Connecting junction
 PRV_400N-Z3_NU                     4900.0000  ;Connecting junction
 PRV_400N-Z3_ND                     4900.0000  ;Connecting junction
 PRV_MAPLE-Z2_LOWERTANK_NU          4936.8438  ;Connecting junction
 PRV_MAPLE-Z2_LOWERTANK_ND          4936.8438  ;Connecting junction
 PRV_MAPLE-Z3_LOWERTANKS_NU         4922.9658  ;Connecting junction
 PRV_MAPLE-Z3_LOWERTANKS_ND         4922.9658  ;Connecting junction
 PRV_MAPLECANYON_NU                 4939.5996  ;Connecting junction
 PRV_MAPLECANYON_ND                 4939.5996  ;Connecting junction
 PRV_Z2-Z1_1600N_NU                 4810.2363  ;Connecting junction
 PRV_Z2-Z1_1600N_ND                 4810.2363  ;Connecting junction
 PRV_Z2-Z1_1600S_NU                 4823.3926  ;Connecting junction
 PRV_Z2-Z1_1600S_ND                 4823.3926  ;Connecting junction
 PRV_Z2-Z1_400N_NU                  4799.1143  ;Connecting junction
 PRV_Z2-Z1_400N_ND                  4799.1143  ;Connecting junction
 PRV_Z2-Z1_400S_NU                  4819.2000  ;Connecting junction
 PRV_Z2-Z1_400S_ND                  4819.2000  ;Connecting junction
 PRV_Z2-Z1_800W_2_NU                4784.0000  ;Connecting junction
 PRV_Z2-Z1_800W_2_ND                4784.0000  ;Connecting junction
 PRV_Z2-Z1_LOWERTWINHOLLOW_NU       4830.4463  ;Connecting junction
 PRV_Z2-Z1_LOWERTWINHOLLOW_ND       4830.4463  ;Connecting junction
 PRV_Z2-Z1_SOUTHMAIN_NU             4828.8711  ;Connecting junction
 PRV_Z2-Z1_SOUTHMAIN_ND             4828.8711  ;Connecting junction
 PRV_Z2-Z1_VILLAGE_NU               4826.0000  ;Connecting junction
 PRV_Z2-Z1_VILLAGE_ND               4826.0000  ;Connecting junction
 PRV_Z3-Z2_1600S_NU                 4873.1953  ;Connecting junction
 PRV_Z3-Z2_1600S_ND                 4873.1953  ;Connecting junction
 PRV_Z3-Z2_850N1800E_NU             4846.8179  ;Connecting junction
 PRV_Z3-Z2_850N1800E_ND             4846.8179  ;Connecting junction
 PRV_Z3-Z2_BENCH_NU                 4888.0000  ;Connecting junction
 PRV_Z3-Z2_BENCH_ND                 4888.0000  ;Connecting junction
 PRV_Z3-Z2_EAGLECOURT_NU            4897.8018  ;Connecting junction
 PRV_Z3-Z2_EAGLECOURT_ND            4897.8018  ;Connecting junction
 PRV_Z3-Z2_HIDDENNORTH_NU           4920.3081  ;Connecting junction
 PRV_Z3-Z2_HIDDENNORTH_ND           4920.3081  ;Connecting junction
 PRV_Z3-Z2_VILLAGE_NU               4956.0000  ;Connecting junction
 PRV_Z3-Z2_VILLAGE_ND               4956.0000  ;Connecting junction

[RESERVOIRS]
 RES_SEALWELL                       4560.0000                                 ;Seal Well Aquifer, was 4560
 RES_CARNESECCAWELL                 4813.0000                                 ;Carnesecca Well Aquifer, was 4560
 RES_WESTWOODWELL                   4673.0000                                 ;Westwood Well Aquifer, SCADA drawdown, was 4560
 RES_CROWD                          5019.0000                                 ;Crowd Canyon Well Aquifer, was 4560

[TANKS]
 T3_LOWERTANK                       4920.0000      10.2000       0.0000      15.0000      75.3000       0.0000                                 ;data from master plan and previous model
 T1_MAPLE1                          5228.0000      19.0000       0.0000      23.2000     118.0000       0.0000                                 ;118' + 128.7' tank combined is 175ft D
 T2_MAPLE2                          5228.0000      19.0000       0.0000      23.2000     128.7000       0.0000                                 ;diameter measured from aerial
 T4_WESTWOOD                        4890.0000      13.0000       0.0000      31.0000      75.0000       0.0000                                 ;start full to simulate altitude valve. data from master plan
 T5_CROWD                           5224.2000      17.0000       0.0000      24.0000     172.3000       0.0000                                 ;use equivalent D to 216'x108' rectangular tank

[PIPES]
 P1001                           J1504                           J1506                               121.8239       8.0000       1.0000       0.0000 CLOSED ;Walter Farms
 P1003                           J1504                           J1508                               496.7266       8.0000       1.0000       0.0000       
 P1005                           J1508                           J1510                               658.5825       8.0000       1.0000       0.0000       
 P1007                           J1512                           J1870                               123.9275       8.0000       1.0000       0.0000       
 P1009                           J1226                           J1514                               322.8244       8.0000       1.0000       0.0000       
 P101                            J138                            J104                                370.6846       6.0000       1.0000       0.0000       
 P1011                           J998                            J1906                               401.6080       8.0000       1.0000       0.0000        ;Maple Valley Estates
 P1013                           J84                             J1822                               153.8416       8.0000       1.0000       0.0000       
 P1015                           J1468                           J1518                               304.5802      12.0000       1.0000       0.0000        ;Twin Hollow B
 P1017                           J1518                           J2340                               254.8637      12.0000       1.0000       0.0000        ;Twin Hollow B
 P1019                           J1260                           J2034                               221.7111       8.0000       1.0000       0.0000        ;Harvest Park M
 P1021                           J784                            J2032                               562.1356       8.0000       1.0000       0.0000        ;Harvest Park M
 P1023                           J1252                           J1522                               283.1579       8.0000       1.0000       0.0000        ;Harvest Park N
 P1025                           J1522                           J2036                               124.0877       8.0000       1.0000       0.0000        ;Harvest Park N
 P1027                           J1520                           J2042                               188.9209       8.0000       1.0000       0.0000        ;Harvest Park N
 P1029                           J1526                           J788                                482.9153       8.0000       1.0000       0.0000        ;Harvest Park N
 P103                            J142                            J144                                 23.5380       8.0000       1.0000       0.0000       
 P1031                           J1528                           J1530                               392.9115      12.0000       1.0000       0.0000       
 P1033                           J1530                           J1532                               860.6761      12.0000       1.0000       0.0000       
 P1035                           J1532                           J1450                               279.2678      12.0000       1.0000       0.0000       
 P1037                           J1534                           J1542                               198.2312      12.0000       1.0000       0.0000       
 P1043                           J1540                           J1542                               305.7974       8.0000       1.0000       0.0000       
 P1045                           J1540                           J1544                              1350.6654       8.0000       1.0000       0.0000       
 P1047                           J1528                           J1544                               485.7664       8.0000       1.0000       0.0000       
 P1049                           J1544                           J1546                               330.1981       8.0000       1.0000       0.0000       
 P105                            J82                             J74                                  20.3452       6.0000       1.0000       0.0000       
 P1051                           J1246                           J1390                               249.0564      12.0000       1.0000       0.0000       
 P1053                           J1548                           J828                                101.6028      12.0000       1.0000       0.0000       
 P1055                           J808                            J1386                               696.8317       8.0000       1.0000       0.0000       
 P1057                           J1394                           J818                                486.5147       8.0000       1.0000       0.0000       
 P1061                           J1552                           J1584                               621.2242       8.0000       1.0000       0.0000       
 P1063                           J1554                           J1556                               197.9926       8.0000       1.0000       0.0000       
 P1065                           J1558                           J2060                               175.6617       8.0000       1.0000       0.0000        ;Whiting Cove D
 P1067                           J1558                           J1562                               469.3400       8.0000       1.0000       0.0000       
 P1069                           J1562                           J636                                269.7678       8.0000       1.0000       0.0000       
 P107                            J146                            J62                                2686.2994       6.0000       1.0000       0.0000       
 P1071                           J666                            J1562                               352.4227       8.0000       1.0000       0.0000       
 P1073                           J1554                           J1558                               327.5204       8.0000       1.0000       0.0000       
 P1075                           J660                            J1564                               726.5238       8.0000       1.0000       0.0000       
 P1077                           J1564                           J1566                               595.9427       8.0000       1.0000       0.0000       
 P1079                           J1564                           J1568                               457.1312       8.0000       1.0000       0.0000       
 P1081                           J1568                           J2068                               502.3444       8.0000       1.0000       0.0000        ;Emerald Estates D
 P1083                           J1568                           J1572                               490.0631       8.0000       1.0000       0.0000       
 P1085                           J1572                           J1574                               634.8323       8.0000       1.0000       0.0000       
 P1087                           J1576                           J1578                               198.2634       8.0000       1.0000       0.0000       
 P1089                           J1578                           J2416                               439.3489       8.0000       1.0000       0.0000       
 P109                            J148                            J150                                202.6099      20.0000       1.0000       0.0000       
 P1091                           J1582                           J2196                               376.0213       8.0000       1.0000       0.0000        ;Skyridge Estates
 P1093                           J1584                           J2062                               148.2687       8.0000       1.0000       0.0000       
 P1099                           J1590                           J1592                               633.4063       8.0000       1.0000       0.0000       
 P11                             J10                             J12                                 574.4795       6.0000       1.0000       0.0000       
 P1101                           J1592                           J1594                               256.5888       8.0000       1.0000       0.0000       
 P1103                           J1592                           J1596                               752.3382       8.0000       1.0000       0.0000       
 P1105                           J1066                           J1598                               136.2741       8.0000       1.0000       0.0000        ;Hidden Lane Estates
 P1107                           J1598                           J1886                               129.5010       8.0000       1.0000       0.0000        ;Hidden Lane Estates
 P1109                           J1450                           J2136                               313.7662       8.0000       1.0000       0.0000        ;Sunrise Ranch D
 P111                            J150                            J162                                  7.1206      20.0000       1.0000       0.0000       
 P1111                           J1546                           J1602                               785.3589       8.0000       1.0000       0.0000        ;Maple Grove D
 P1113                           J1604                           J1606                               353.0372       8.0000       1.0000       0.0000        ;Twin Hollow D
 P1115                           J1468                           J2334                               364.5983       8.0000       1.0000       0.0000        ;Twin Hollow B
 P1117                           J1604                           J2356                               322.1679       8.0000       1.0000       0.0000        ;Twin Hollow D
 P1119                           J1610                           J2028                               416.9309       8.0000       1.0000       0.0000        ;Thatchill Estates
 P1121                           J1614                           J1616                              1461.1755      12.0000       1.0000       0.0000       
 P1123                           T1_MAPLE1                       J1620                               212.2253      16.0000       1.0000       0.0000       
 P1125                           T2_MAPLE2                       J1620                               306.6571      16.0000       1.0000       0.0000       
 P1127                           J1620                           J1626                              2362.5213      16.0000       1.0000       0.0000       
 P1129                           J1616                           J1474                               584.2731      12.0000       1.0000       0.0000       
 P113                            J152                            J154                                 10.9363      20.0000       1.0000       0.0000       
 P1131                           J1062                           J1600                               132.2855       8.0000       1.0000       0.0000        ;Hidden Lane Estates
 P1133                           J56                             J1628                               597.8749       8.0000       1.0000       0.0000       
 P1135                           J1630                           J1828                               234.9964       8.0000       1.0000       0.0000       
 P1137                           J1602                           J1634                               339.6284       8.0000       1.0000       0.0000        ;Maple Grove D
 P1139                           J1634                           J1544                               690.9367       8.0000       1.0000       0.0000       
 P1141                           J1636                           J1966                               338.7704       8.0000       1.0000       0.0000        ;Dignity Care
 P1143                           J1640                           J1970                               103.5765       8.0000       1.0000       0.0000        ;Dignity Care
 P1145                           J1644                           J2046                               263.3586       8.0000       1.0000       0.0000        ;Harvest Park O
 P1147                           J1526                           J1644                               268.3741       8.0000       1.0000       0.0000        ;Harvest Park O
 P1149                           J1524                           J1648                               224.5335       8.0000       1.0000       0.0000        ;Harvest Park P
 P115                            J156                            J158                                 38.0554       8.0000       1.0000       0.0000       
 P1151                           J1586                           J2064                               419.8035       8.0000       1.0000       0.0000        ;Whiting Cove B
 P1153                           J1654                           J548                               2060.5453      12.0000       1.0000       0.0000        ;New Pipe
 P1155                           J1656                           J1654                                 2.0572      12.0000       1.0000       0.0000        ;New Pipe
 P1157                           J544                            J1654                              1801.0254       8.0000       1.0000       0.0000        ;New Pipe
 P1159                           J1656                           J1688                               617.4806       8.0000       1.0000       0.0000        ;New Pipe
 P1161                           J880                            J878                                227.0566       8.0000       1.0000       0.0000       
 P1163                           J872                            J2878                              1114.6024       6.0000       1.0000       0.0000       
 P1165                           J1166                           J1178                               540.9909       6.0000       1.0000       0.0000       
 P1167                           J1178                           J1670                               776.6056       6.0000       1.0000       0.0000       
 P1169                           J1078                           J1134                               764.8973       8.0000       1.0000       0.0000       
 P117                            PMP_BOOSTER1_ND                 J152                                140.5236      12.0000       1.0000       0.0000        ;Connecting pipe
 P1171                           J1074                           J1384                               348.4462       8.0000       1.0000       0.0000       
 P1175                           J1384                           J2568                               456.1423       8.0000       1.0000       0.0000       
 P1177                           J1010                           J1008                               141.5334       8.0000       1.0000       0.0000       
 P1179                           J118                            J1016                               325.7662      12.0000       1.0000       0.0000       
 P1181                           J122                            J1330                               368.2156      12.0000       1.0000       0.0000       
 P1183                           J46                             J1022                                63.7425      12.0000       1.0000       0.0000       
 P1185                           J1056                           J46                                   5.8840      12.0000       1.0000       0.0000       
 P1187                           J1026                           J50                                   6.2085       6.0000       1.0000       0.0000       
 P1189                           J50                             J1024                               687.3293       6.0000       1.0000       0.0000       
 P119                            J162                            J164                                 14.3275      20.0000       1.0000       0.0000       
 P1191                           J1042                           J1036                               660.9292       8.0000       1.0000       0.0000       
 P1193                           J1038                           J1044                               392.9729       8.0000       1.0000       0.0000       
 P1195                           J1044                           J1114                                13.7435       8.0000       1.0000       0.0000       
 P1197                           J1114                           J1048                               660.0489       8.0000       1.0000       0.0000       
 P1199                           J1326                           J1056                               223.9133       8.0000       1.0000       0.0000       
 P1201                           J1050                           J1058                               341.3014       8.0000       1.0000       0.0000       
 P1203                           J1064                           J1030                                69.3361       8.0000       1.0000       0.0000       
 P1205                           J1034                           J1064                               222.4101       8.0000       1.0000       0.0000       
 P1207                           J1068                           J1034                                69.7852       8.0000       1.0000       0.0000       
 P1209                           J1082                           J1070                               287.1705       8.0000       1.0000       0.0000       
 P121                            J166                            J168                                 93.0790      20.0000       1.0000       0.0000       
 P1211                           J1076                           J1046                                26.9995       8.0000       1.0000       0.0000       
 P1213                           J1102                           J1104                               424.0222       8.0000       1.0000       0.0000       
 P1215                           J1104                           J1136                                 5.6218       8.0000       1.0000       0.0000       
 P1219                           J1100                           J1080                               268.3405       8.0000       1.0000       0.0000       
 P1221                           J1094                           J1082                               654.0389       8.0000       1.0000       0.0000       
 P1223                           J1006                           J1084                              1290.3238       8.0000       1.0000       0.0000       
 P1225                           J1004                           J1006                                 5.9873       8.0000       1.0000       0.0000       
 P1227                           J1124                           J1664                               421.4637       8.0000       1.0000       0.0000       
 P1229                           J1148                           J1666                               324.7316       8.0000       1.0000       0.0000       
 P123                            J164                            PRV_MAPLE-Z2_LOWERTANK_NU             5.8422      12.0000       1.0000       0.0000        ;Connecting pipe
 P1231                           J1116                           J1122                               410.5511       8.0000       1.0000       0.0000       
 P1233                           J1110                           J1672                               357.8367       8.0000       1.0000       0.0000       
 P1235                           J1132                           J1128                               310.7887       8.0000       1.0000       0.0000       
 P1237                           J1140                           J1150                               340.6256       8.0000       1.0000       0.0000       
 P1239                           J1150                           J1164                               311.7729       8.0000       1.0000       0.0000       
 P1241                           J1154                           J1152                               340.7586       8.0000       1.0000       0.0000       
 P1243                           J1162                           J1160                                 4.3607       8.0000       1.0000       0.0000       
 P1245                           J1152                           J1160                               282.9198       8.0000       1.0000       0.0000       
 P1247                           J884                            J1670                               436.2621       6.0000       1.0000       0.0000       
 P1249                           J1168                           J1072                                20.3919       8.0000       1.0000       0.0000       
 P125                            J148                            J2486                                43.2841      12.0000       1.0000       0.0000       
 P1251                           J1170                           J1182                               385.2969       6.0000       1.0000       0.0000       
 P1253                           J1182                           J1168                               265.0804       6.0000       1.0000       0.0000       
 P1255                           J1176                           J1172                               375.8383       8.0000       1.0000       0.0000       
 P1257                           J1120                           J1184                               583.7380       8.0000       1.0000       0.0000       
 P1259                           J1032                           J1036                               277.0270       6.0000       1.0000       0.0000       
 P1261                           J1052                           J1032                               419.6910       6.0000       1.0000       0.0000       
 P1263                           J1036                           J1040                               352.2592       6.0000       1.0000       0.0000       
 P1265                           J1134                           J1166                               647.8396       8.0000       1.0000       0.0000       
 P1267                           J1330                           J118                                  3.3009      12.0000       1.0000       0.0000       
 P1269                           J1058                           J1326                               378.5373       8.0000       1.0000       0.0000       
 P127                            J168                            J172                                103.4345      20.0000       1.0000       0.0000       
 P1271                           J1084                           J1050                                 4.4773       8.0000       1.0000       0.0000       
 P1273                           J1030                           J1084                               379.3749       8.0000       1.0000       0.0000       
 P1275                           J1126                           J1082                                 5.2074       8.0000       1.0000       0.0000       
 P1277                           J1046                           J1126                               313.4504       8.0000       1.0000       0.0000       
 P1279                           J1108                           J1072                               164.4588       8.0000       1.0000       0.0000       
 P1281                           J1136                           J1108                               459.5425       8.0000       1.0000       0.0000       
 P1285                           J1164                           J1146                                 5.0309       8.0000       1.0000       0.0000       
 P1287                           J874                            J1668                               875.2946       6.0000       1.0000       0.0000       
 P1289                           J1040                           J1048                               396.3408       6.0000       1.0000       0.0000       
 P129                            J172                            J174                                 51.2586      12.0000       1.0000       0.0000       
 P1291                           J1048                           J1128                               298.5772       8.0000       1.0000       0.0000       
 P1293                           J140                            J1020                                 7.6478      12.0000       1.0000       0.0000       
 P1295                           J1020                           J1878                               374.5315      12.0000       1.0000       0.0000       
 P1299                           J1128                           J1184                                 2.2349       8.0000       1.0000       0.0000       
 P13                             J10                             J14                                 515.9309       8.0000       1.0000       0.0000       
 P1309-1600N                     J20                             J18                                 322.2552       8.0000       1.0000       0.0000 CLOSED ;Zone 3 to Zone 2 is closed
 P131                            CONTROL_MAPLEBENCH_ND           J176                                 32.6443      16.0000       1.0000       0.0000        ;Connecting pipe
 P1311                           J66                             J20                                 298.1714       8.0000       1.0000       0.0000       
 P1313                           J28                             J26                                  62.2438       8.0000       1.0000       0.0000       
 P1315                           J206                            J28                                 115.9925       8.0000       1.0000       0.0000       
 P1317                           J34                             J10                                 240.9903       8.0000       1.0000       0.0000       
 P1319                           J52                             J1406                                38.0853       8.0000       1.0000       0.0000       
 P1321                           J102                            J2894                               470.3115       8.0000       1.0000       0.0000       
 P1323                           J64                             J62                                 295.7158       6.0000       1.0000       0.0000       
 P1325                           J76                             J70                                   3.5679       8.0000       1.0000       0.0000       
 P1327                           J390                            J74                                 677.6970       8.0000       1.0000       0.0000       
 P1329                           J78                             J54                                 705.2200       8.0000       1.0000       0.0000       
 P133                            PRV_MAPLECANYON_ND              J174                                245.1060      16.0000       1.0000       0.0000        ;Connecting pipe
 P1331                           J86                             J80                                  50.2729       8.0000       1.0000       0.0000       
 P1333                           J80                             J84                                 167.7825       8.0000       1.0000       0.0000       
 P1335                           J100                            J1674                               276.7774       8.0000       1.0000       0.0000       
 P1337                           J94                             J104                                655.5109       6.0000       1.0000       0.0000       
 P1339                           J110                            J42                                 462.3210       8.0000       1.0000       0.0000       
 P1341                           J108                            J114                                376.9497       8.0000       1.0000       0.0000       
 P1343                           J116                            J118                                482.4038       8.0000       1.0000       0.0000       
 P1345                           J114                            J136                                648.1465       8.0000       1.0000       0.0000       
 P1347                           J132                            J134                                 25.1942       8.0000       1.0000       0.0000       
 P1349                           J134                            J122                                603.3739       8.0000       1.0000       0.0000       
 P135                            T3_LOWERTANK                    J1700                                61.0159      12.0000       1.0000       0.0000       
 P1351                           J124                            J112                                321.6342       8.0000       1.0000       0.0000       
 P1353                           J144                            J138                                872.7340       6.0000       1.0000       0.0000       
 P1355                           J394                            J140                                613.1499       6.0000       1.0000       0.0000       
 P1357                           J364                            J130                                670.1385       6.0000       1.0000       0.0000       
 P1359                           J104                            J364                                664.6138       6.0000       1.0000       0.0000       
 P1361                           J74                             J1630                               321.8046       6.0000       1.0000       0.0000       
 P1363                           J1630                           J70                                 358.8542       6.0000       1.0000       0.0000       
 P1365                           J156                            J152                                 26.6615      20.0000       1.0000       0.0000       
 P1367                           J162                            J156                                 24.8147      20.0000       1.0000       0.0000       
 P1369                           J202                            J186                                403.9877      12.0000       1.0000       0.0000       
 P137                            J174                            J2386                               609.6740      12.0000       1.0000       0.0000       
 P1371                           J216                            J206                                513.3221       8.0000       1.0000       0.0000       
 P1373                           J1588                           J236                                340.4557       8.0000       1.0000       0.0000       
 P1375                           J236                            J234                                 18.1573       8.0000       1.0000       0.0000       
 P1377                           J262                            J240                                970.5058       6.0000       1.0000       0.0000       
 P1379                           J232                            J198                                  2.0225      12.0000       1.0000       0.0000       
 P1381                           J198                            J258                                674.4646      12.0000       1.0000       0.0000       
 P1383                           J224                            J1852                               132.9778      12.0000       1.0000       0.0000       
 P1385                           J200                            J1788                               168.5595      12.0000       1.0000       0.0000       
 P1387                           J416                            J264                                132.3118      12.0000       1.0000       0.0000       
 P1389                           J264                            J244                                344.2855      12.0000       1.0000       0.0000       
 P139                            J182                            J184                                362.2315      12.0000       1.0000       0.0000       
 P1391                           J362                            J246                                 24.1714      12.0000       1.0000       0.0000       
 P1393                           J254                            J250                               1399.5423       6.0000       1.0000       0.0000       
 P1395                           J274                            J260                                867.9325       8.0000       1.0000       0.0000       
 P1397                           J280                            J262                                371.0046       8.0000       1.0000       0.0000       
 P1399                           J282                            J266                                 23.9756       8.0000       1.0000       0.0000       
 P1401                           J272                            J268                                590.1344       8.0000       1.0000       0.0000       
 P1403                           J276                            J274                                325.5018       8.0000       1.0000       0.0000       
 P1405                           J294                            J288                                 40.0411       8.0000       1.0000       0.0000       
 P1407                           J288                            J292                                556.0000       6.0000       1.0000       0.0000       
 P1409                           J1344                           J1340                               339.9243       8.0000       1.0000       0.0000       
 P141                            J184                            J202                                 16.6178      12.0000       1.0000       0.0000       
 P1411                           J298                            J302                                420.2422       8.0000       1.0000       0.0000       
 P1413                           J1510                           J296                                465.6118       8.0000       1.0000       0.0000       
 P1415                           J1340                           J1510                               381.0233       8.0000       1.0000       0.0000       
 P1417                           J304                            J300                                214.1623       8.0000       1.0000       0.0000       
 P1419                           J888                            J304                                243.3676       8.0000       1.0000       0.0000       
 P1421                           J890                            J308                                354.7294       8.0000       1.0000       0.0000       
 P1423                           J1236                           J312                                393.7461       8.0000       1.0000       0.0000       
 P1425                           J296                            J1236                               351.3078       8.0000       1.0000       0.0000       
 P1427                           J1088                           J2572                                79.7569       8.0000       1.0000       0.0000       
 P1429                           J1092                           J1088                               142.2690       8.0000       1.0000       0.0000       
 P143                            J188                            J2628                               435.3610      12.0000       1.0000       0.0000       
 P1431                           J1590                           J322                                444.1669      12.0000       1.0000       0.0000       
 P1433                           J1206                           J386                                506.6961       8.0000       1.0000       0.0000       
 P1435                           J384                            J2428                               305.9661       8.0000       1.0000       0.0000       
 P1437                           J386                            J384                                146.1973       8.0000       1.0000       0.0000       
 P1439                           J372                            J370                                298.2988       8.0000       1.0000       0.0000       
 P1441                           J378                            J372                                451.7386       8.0000       1.0000       0.0000       
 P1443                           J316                            J376                                198.0318       8.0000       1.0000       0.0000       
 P1445                           J1220                           J1596                               270.9015       8.0000       1.0000       0.0000       
 P1447                           J1216                           J1860                               384.0474       8.0000       1.0000       0.0000       
 P1449                           J748                            J750                                422.7585       8.0000       1.0000       0.0000       
 P145-FROMTANK-MAPLE             J188                            J2436                               265.5322      12.0000       1.0000       0.0000       
 P1451                           J996                            J1000                               277.1883       8.0000       1.0000       0.0000       
 P1453                           J1512                           J388                                 15.3646      12.0000       1.0000       0.0000       
 P1455                           J388                            J1212                               343.7256      12.0000       1.0000       0.0000       
 P1459                           J1192                           J1188                               601.5955       8.0000       1.0000       0.0000       
 P1461                           J1202                           J1200                               654.6281       6.0000       1.0000       0.0000       
 P1463                           J1594                           J1224                               328.6774      12.0000       1.0000       0.0000       
 P1465                           J1188                           J246                                552.9159      12.0000       1.0000       0.0000       
 P1467                           J370                            J1188                                 4.9406      12.0000       1.0000       0.0000       
 P1469                           J1196                           J370                                358.3431      12.0000       1.0000       0.0000       
 P147                            J1714                           J196                                306.4359      12.0000       1.0000       0.0000       
 P1471                           J1200                           J1218                               180.1923      12.0000       1.0000       0.0000       
 P1473                           J1230                           J1228                               144.7396       8.0000       1.0000       0.0000       
 P1477                           J1232                           J1086                               259.5945       8.0000       1.0000       0.0000       
 P1481                           J1332                           J1346                               140.2818       8.0000       0.4000       0.0000       
 P1483                           J1342                           J1338                               143.7238       8.0000       0.4000       0.0000       
 P1485                           J1346                           J1342                               352.3126       8.0000       0.4000       0.0000       
 P1487                           J1412                           J1410                               291.2061       8.0000       0.4000       0.0000       
 P149                            J196                            J198                                986.2578      12.0000       1.0000       0.0000       
 P1497-1600N                     PRV_Z2-Z1_1600N_ND              J1756                                81.8288       8.0000       1.0000       0.0000        ;Connecting pipe
 P1499                           J136                            J116                                111.7422       8.0000       1.0000       0.0000       
 P15                             J14                             J16                                 564.0065       8.0000       1.0000       0.0000       
 P1501                           J130                            J394                                 22.3069       6.0000       1.0000       0.0000       
 P1503                           J258                            J242                                484.1479      12.0000       1.0000       0.0000       
 P1505                           J146                            J224                                668.0750      12.0000       1.0000       0.0000       
 P1507                           J268                            J282                                290.9423       8.0000       1.0000       0.0000       
 P1509                           J308                            J1344                               551.0520       8.0000       1.0000       0.0000       
 P151                            J200                            J398                               1280.3264       6.0000       1.0000       0.0000       
 P1511                           J302                            J308                                760.0877       8.0000       1.0000       0.0000       
 P1513                           J1596                           J1676                               610.0396       8.0000       1.0000       0.0000       
 P1515                           J1212                           J320                                333.0514      12.0000       1.0000       0.0000       
 P1517                           J1218                           J1196                               111.5685      12.0000       1.0000       0.0000       
 P1521                           J222                            J2620                               273.2202       6.0000       1.0000       0.0000       
 P1523                           J398                            J222                                130.6729       8.0000       1.0000       0.0000       
 P1525                           J326                            J1222                                25.2411      12.0000       1.0000       0.0000       
 P1527                           J332                            J324                                933.6479      12.0000       1.0000       0.0000       
 P1529                           J1222                           J332                                361.1132      12.0000       1.0000       0.0000       
 P153                            J170                            J2488                               600.2782      12.0000       1.0000       0.0000       
 P1539                           J1626                           J154                                671.1691      16.0000       1.0000       0.0000       
 P1541                           J178                            J190                                  9.4992      12.0000       1.0000       0.0000       
 P1543                           J758                            J744                                692.9329      12.0000       1.0000       0.0000       
 P1545                           J744                            J338                                  5.6201      12.0000       1.0000       0.0000       
 P1547                           J1194                           J350                                  2.1276       8.0000       1.0000       0.0000       
 P1549                           J1204                           J1194                                42.8776       8.0000       1.0000       0.0000       
 P155                            J204                            J216                               2314.2124       8.0000       1.0000       0.0000       
 P1551                           J420                            J362                                494.6431       8.0000       1.0000       0.0000       
 P1553                           J228                            J436                                188.0365       8.0000       1.0000       0.0000       
 P1555                           J436                            J1722                               998.1035       8.0000       1.0000       0.0000       
 P1557                           J422                            J418                                723.8686       8.0000       1.0000       0.0000       
 P1559                           J418                            J416                                493.1772       8.0000       1.0000       0.0000       
 P1561                           J746                            J750                                372.0927       8.0000       1.0000       0.0000       
 P1563                           J750                            J376                                759.7981       8.0000       1.0000       0.0000       
 P1565                           J756                            J752                                438.4563       8.0000       1.0000       0.0000       
 P1567                           J762                            J758                                885.2287       8.0000       1.0000       0.0000       
 P157                            J182                            J208                                678.9447       8.0000       1.0000       0.0000       
 P1583                           J376                            J2018                               285.0625       8.0000       1.0000       0.0000       
 P159                            J204                            J210                                671.4872       6.0000       1.0000       0.0000       
 P1595                           J312                            J1092                                 1.3642       8.0000       1.0000       0.0000       
 P1597                           J1234                           J1232                                 1.1993       8.0000       1.0000       0.0000       
 P1599                           J1074                           J1334                                 1.4987       8.0000       0.4000       0.0000       
 P1601                           J1074                           J1660                               650.8850       8.0000       1.0000       0.0000       
 P1603                           J734                            J684                                 48.0386       8.0000       1.0000       0.0000       
 P1605                           J858                            J734                                 40.4739       8.0000       1.0000       0.0000       
 P1607                           J1642                           J858                                774.5279       8.0000       1.0000       0.0000       
 P1609                           J726                            J736                                553.2824      12.0000       1.0000       0.0000       
 P161                            J214                            J216                                449.6435       6.0000       1.0000       0.0000       
 P1611                           J740                            J726                                407.1068      12.0000       1.0000       0.0000       
 P1613                           J988                            J1576                               435.3830       8.0000       1.0000       0.0000       
 P1615                           J1576                           J742                                233.8993       8.0000       1.0000       0.0000       
 P1617                           J1438                           J1430                               610.6536       8.0000       0.4000       0.0000        ;Maple Grove Middle School
 P1619                           J848                            J1430                               291.5619       8.0000       1.0000       0.0000       
 P1621                           J1426                           J848                                349.0581       8.0000       1.0000       0.0000       
 P1623                           J1430                           J1642                               520.7467       8.0000       1.0000       0.0000       
 P1625                           J434                            J432                                 25.1662       8.0000       1.0000       0.0000       
 P1627                           J456                            J440                                757.5253       8.0000       1.0000       0.0000       
 P1629                           J454                            J450                                473.1662      12.0000       1.0000       0.0000       
 P1631                           J940                            J2624                               392.1782      12.0000       1.0000       0.0000       
 P1633                           J450                            J448                                576.8363      12.0000       1.0000       0.0000       
 P1635                           J460                            J458                                  8.0152       8.0000       1.0000       0.0000       
 P1637                           J470                            J468                                  3.6920      12.0000       1.0000       0.0000       
 P1639                           J502                            J1792                               205.9655      12.0000       1.0000       0.0000       
 P1641                           J498                            J502                                629.6957      12.0000       1.0000       0.0000       
 P1643                           J934                            J446                                  2.5344      12.0000       1.0000       0.0000       
 P1645                           J930                            J934                               1461.6195      12.0000       1.0000       0.0000       
 P1647                           J972                            J476                                103.8405       8.0000       1.0000       0.0000       
 P1649                           J478                            J972                                164.6594       8.0000       1.0000       0.0000       
 P165                            J220                            J222                                 43.3091       8.0000       1.0000       0.0000       
 P1651                           J946                            J482                                533.9824       8.0000       1.0000       0.0000       
 P1653                           J490                            J946                                295.9525       8.0000       1.0000       0.0000       
 P1655                           J488                            J2806                               224.0466       4.0000       1.0000       0.0000       
 P1657                           J514                            J558                                638.9152       8.0000       1.0000       0.0000       
 P1659                           J510                            J514                                649.3884      12.0000       1.0000       0.0000       
 P1661                           J558                            J508                                 51.0039       8.0000       1.0000       0.0000       
 P1663                           J524                            J520                                335.8787      12.0000       1.0000       0.0000       
 P1665                           J526                            J524                                695.8497      12.0000       1.0000       0.0000       
 P1667                           J518                            J566                                227.7947      12.0000       1.0000       0.0000       
 P1669                           J566                            J516                                 12.0576      12.0000       1.0000       0.0000       
 P167                            J224                            J226                                794.5320       8.0000       1.0000       0.0000       
 P1671                           PRV_Z2-Z1_800W_2_ND             J520                                 48.7178      12.0000       1.0000       0.0000        ;Connecting pipe
 P1673                           J520                            J530                                128.5001      12.0000       1.0000       0.0000       
 P1675                           J536                            J2812                               398.3884      12.0000       1.0000       0.0000       
 P1677                           J586                            J540                                413.7946       8.0000       1.0000       0.0000       
 P1679                           J546                            J542                                  3.0358      12.0000       1.0000       0.0000       
 P1681                           J556                            J2082                              1014.7969       8.0000       1.0000       0.0000       
 P1683                           J560                            J562                                 35.3889       8.0000       1.0000       0.0000       
 P1685                           J562                            J568                               1757.8873       8.0000       1.0000       0.0000       
 P1687                           J580                            J572                                288.7381      12.0000       1.0000       0.0000       
 P1689                           J568                            J574                                582.8423      12.0000       1.0000       0.0000       
 P169                            J228                            J230                                317.3257       6.0000       1.0000       0.0000       
 P1691                           J570                            J582                                  4.4324       8.0000       1.0000       0.0000       
 P1693                           J594                            J570                                  6.7188       8.0000       1.0000       0.0000       
 P1695                           J616                            J584                                893.6950       8.0000       1.0000       0.0000       
 P1697                           J590                            J588                                225.2481       8.0000       1.0000       0.0000       
 P1699                           J614                            J596                                 47.1764       8.0000       1.0000       0.0000       
 P17                             J16                             J66                                 358.0589       8.0000       1.0000       0.0000       
 P1701                           J604                            J600                                  2.7504       8.0000       1.0000       0.0000       
 P1703                           J608                            J606                                  2.8671       8.0000       1.0000       0.0000       
 P1705                           J618                            J616                                672.3766       8.0000       1.0000       0.0000       
 P1707                           J622                            J618                                421.4172       8.0000       1.0000       0.0000       
 P1709                           J1320                           J626                                788.4595      12.0000       1.0000       0.0000       
 P171                            J232                            J1588                              1346.0705       8.0000       1.0000       0.0000       
 P1711                           J900                            J628                                 20.4908      12.0000       1.0000       0.0000       
 P1713                           J612                            J900                                862.5549      12.0000       1.0000       0.0000       
 P1715                           J694                            J632                                863.5974       8.0000       1.0000       0.0000       
 P1717                           J1552                           J630                                520.2486       8.0000       1.0000       0.0000       
 P1719                           J1650                           J1552                               388.3339       8.0000       1.0000       0.0000       
 P1721                           J632                            J2636                               518.3981       8.0000       1.0000       0.0000       
 P1723                           J634                            J638                                190.1882       8.0000       1.0000       0.0000       
 P1725                           J1566                           J656                                431.5073      12.0000       1.0000       0.0000       
 P1727                           J658                            J660                                405.6475       8.0000       1.0000       0.0000       
 P1729                           J660                            J664                                416.0175       8.0000       1.0000       0.0000       
 P173                            J236                            J238                                331.0119       8.0000       1.0000       0.0000       
 P1731                           J1238                           J692                                976.8077      12.0000       1.0000       0.0000       
 P1733                           J1570                           J656                                854.5394       8.0000       1.0000       0.0000       
 P1735                           J656                            J690                                  2.2234       8.0000       1.0000       0.0000       
 P1737                           J1574                           J1570                               501.7348       8.0000       1.0000       0.0000       
 P1739                           J700                            J1992                               336.4851       8.0000       1.0000       0.0000       
 P1741                           J712                            J716                               1495.1906       8.0000       1.0000       0.0000       
 P1743                           J716                            J718                                145.6655       8.0000       1.0000       0.0000       
 P1745                           J724                            J722                                 25.0106       8.0000       1.0000       0.0000       
 P1747                           J688                            J850                                854.5715       8.0000       1.0000       0.0000       
 P1749                           J968                            J894                                134.6427       8.0000       1.0000       0.0000       
 P175                            J236                            J262                                675.5880       6.0000       1.0000       0.0000       
 P1751                           J958                            J896                               1069.1933       8.0000       1.0000       0.0000       
 P1753                           J962                            J958                                594.5917       8.0000       1.0000       0.0000       
 P1755                           J966                            J962                                666.2207       8.0000       1.0000       0.0000       
 P1757                           J896                            J952                                604.3796       8.0000       1.0000       0.0000       
 P1759                           J952                            J922                                668.0984       8.0000       1.0000       0.0000       
 P1761                           J906                            J548                                 39.5780       8.0000       1.0000       0.0000       
 P1763                           J910                            J900                                657.0738       8.0000       1.0000       0.0000       
 P1765                           J548                            J1464                               402.6241       8.0000       1.0000       0.0000       
 P1767                           J902                            J908                                761.0352       8.0000       1.0000       0.0000       
 P1769                           J956                            J1690                              1258.2951       8.0000       1.0000       0.0000       
 P177                            J186                            J200                                  6.1756      12.0000       1.0000       0.0000       
 P1771                           J948                            J956                                411.4017       8.0000       1.0000       0.0000       
 P1773                           J950                            J1692                               664.7042       8.0000       1.0000       0.0000       
 P1775                           J1610                           J1324                               301.8523      12.0000       1.0000       0.0000       
 P1777                           J920                            J960                                646.4045      12.0000       1.0000       0.0000       
 P1779                           J986                            J920                                136.3252      12.0000       1.0000       0.0000       
 P1781                           J980                            J2008                               307.0834      12.0000       1.0000       0.0000       
 P1783                           J1492                           J980                                138.4210      12.0000       1.0000       0.0000       
 P1785                           J1324                           J1492                               686.7926      12.0000       1.0000       0.0000       
 P1787                           J1322                           J718                                356.4317       8.0000       1.0000       0.0000       
 P1789                           J1242                           J1322                               416.5640       8.0000       1.0000       0.0000       
 P179                            J242                            J416                                 19.7650      12.0000       1.0000       0.0000       
 P1793                           J1276                           J1278                                 1.5319      12.0000       1.0000       0.0000       
 P1795                           J1614                           J1282                               705.4821      18.0000       1.0000       0.0000       
 P1797                           J1310                           J1490                                 4.1975      18.0000       1.0000       0.0000       
 P1799                           J1490                           J1306                                12.9947      18.0000       1.0000       0.0000       
 P1801                           J1432                           J1428                              1147.0241       8.0000       0.4000       0.0000        ;Maple Grove Middle School
 P1803                           J1462                           J1466                               121.5147       8.0000       0.4000       0.0000        ;Magnolia Lane
 P1805                           J1470                           J2868                               745.3447      12.0000       0.4000       0.0000       
 P1807                           J1584                           J1554                               633.4752       8.0000       1.0000       0.0000       
 P1809                           J1572                           J638                                 54.6540       8.0000       1.0000       0.0000       
 P181                            J244                            J362                                426.8912      12.0000       1.0000       0.0000       
 P1811                           J1640                           J1968                               519.6076       8.0000       1.0000       0.0000        ;Dignity Care
 P1813                           J1650                           J2066                               313.1704       8.0000       1.0000       0.0000        ;Whiting Cove B
 P1815                           J428                            J426                                575.9123       8.0000       1.0000       0.0000       
 P1817                           J448                            J434                                278.9179      12.0000       1.0000       0.0000       
 P1819                           J630                            J676                               1231.6485       8.0000       1.0000       0.0000       
 P1821                           J676                            J2056                                20.8106       8.0000       1.0000       0.0000       
 P1823                           J550                            J572                                 16.3886       8.0000       1.0000       0.0000       
 P1825                           J664                            J654                                 14.6528      12.0000       1.0000       0.0000       
 P1827                           J706                            J720                                447.7833       8.0000       1.0000       0.0000       
 P1829                           J704                            J706                                 84.9105       8.0000       1.0000       0.0000       
 P183                            J248                            J254                                251.1969       6.0000       1.0000       0.0000       
 P1831                           J720                            J730                                 19.3271       8.0000       1.0000       0.0000       
 P1833                           J974                            J454                                372.4838      12.0000       1.0000       0.0000       
 P1835                           J574                            J578                                531.1035      12.0000       1.0000       0.0000       
 P1837                           J710                            J696                                457.2675       8.0000       1.0000       0.0000       
 P1839                           J698                            J710                                399.9959       8.0000       1.0000       0.0000       
 P1841                           J690                            J698                                423.7986       8.0000       1.0000       0.0000       
 P1843                           J922                            J918                                496.8512       8.0000       1.0000       0.0000       
 P1845                           J918                            J914                                180.7039       8.0000       1.0000       0.0000       
 P1847                           J1464                           J910                                689.0648       8.0000       1.0000       0.0000       
 P1849                           J692                            J1610                               325.1616      12.0000       1.0000       0.0000       
 P185                            J250                            J1720                               296.9882       6.0000       1.0000       0.0000       
 P1851                           J964                            J692                                327.7454      12.0000       1.0000       0.0000       
 P1853                           J960                            J964                                667.4805      12.0000       1.0000       0.0000       
 P1855                           J680                            J678                                519.9989       8.0000       1.0000       0.0000       
 P1857                           J572                            J630                                918.4339       8.0000       1.0000       0.0000       
 P1859                           J730                            J1778                               708.1263       8.0000       1.0000       0.0000       
 P1861                           J914                            J628                                638.0187       8.0000       1.0000       0.0000       
 P1863                           J578                            J580                                525.7391      12.0000       1.0000       0.0000       
 P1865                           J1248                           J1536                               385.0931      12.0000       1.0000       0.0000       
 P1867                           J1536                           J652                                  2.0276      12.0000       1.0000       0.0000       
 P1869                           J648                            J846                                212.6005      12.0000       1.0000       0.0000       
 P187                            J254                            J256                               1002.7517       4.0000       1.0000       0.0000       
 P1871                           J650                            J2108                                34.7282       8.0000       1.0000       0.0000       
 P1873                           J830                            J688                                555.3780       8.0000       1.0000       0.0000       
 P1875                           J780                            J770                                297.5360       8.0000       1.0000       0.0000       
 P1877                           J776                            J772                                  1.6255       8.0000       1.0000       0.0000       
 P1879                           J1658                           J776                                351.1754       8.0000       1.0000       0.0000       
 P1881                           J768                            J780                                  1.0470       8.0000       1.0000       0.0000       
 P1883                           J682                            J782                                363.2449       8.0000       1.0000       0.0000       
 P1885                           J774                            J1680                               253.7729       8.0000       1.0000       0.0000       
 P1887                           J786                            J784                                 98.5361       8.0000       1.0000       0.0000       
 P1889                           J790                            J796                                272.7515       8.0000       1.0000       0.0000       
 P189                            J258                            J274                                431.5443       8.0000       1.0000       0.0000       
 P1891                           J796                            J800                                518.2447       8.0000       1.0000       0.0000       
 P1893                           J834                            J810                                363.1236      12.0000       1.0000       0.0000       
 P1895                           J810                            J806                                  1.5534      12.0000       1.0000       0.0000       
 P1897                           J810                            J812                                210.2625      12.0000       1.0000       0.0000       
 P19                             J20                             J22                                 531.9077       8.0000       1.0000       0.0000       
 P1901                           J816                            J814                                173.9463      12.0000       1.0000       0.0000       
 P1903                           J818                            J816                                191.3706       8.0000       1.0000       0.0000       
 P1905                           J814                            J822                                418.0456      12.0000       1.0000       0.0000       
 P1907                           J824                            J822                                  1.9303      12.0000       1.0000       0.0000       
 P1909                           J822                            J826                                521.6826      12.0000       1.0000       0.0000       
 P191                            J260                            J280                                  9.3654       8.0000       1.0000       0.0000       
 P1911                           J844                            J1684                               223.6124       8.0000       1.0000       0.0000       
 P1913                           J836                            J834                                265.7756       8.0000       1.0000       0.0000       
 P1915                           J838                            J836                                246.8832       8.0000       1.0000       0.0000       
 P1919                           J816                            J812                                  0.8730       8.0000       1.0000       0.0000       
 P1921                           J1550                           J812                                634.3027       8.0000       1.0000       0.0000       
 P1923                           J840                            J838                                167.1073       8.0000       1.0000       0.0000       
 P1925                           J864                            J862                                 76.7815       8.0000       1.0000       0.0000       
 P1927                           J1636                           J1638                               338.1195       8.0000       1.0000       0.0000       
 P1929                           J1638                           J852                                307.8998       8.0000       1.0000       0.0000       
 P193                            J264                            J272                                424.9398       8.0000       1.0000       0.0000       
 P1931                           J652                            J1534                               584.4640      12.0000       1.0000       0.0000       
 P1933                           J1534                           J1246                                92.6171      12.0000       1.0000       0.0000       
 P1935                           J1360                           J1354                               128.0221       8.0000       1.0000       0.0000        ;Fox Hollow
 P1937                           J1364                           J1358                               375.3128       8.0000       1.0000       0.0000        ;Fox Hollow
 P1939                           J1352                           J1362                               209.7311       8.0000       1.0000       0.0000        ;Fox Hollow
 P1941                           J1372                           J1370                                 1.3537       8.0000       0.4000       0.0000       
 P1943                           J1372                           J1374                               231.5013       8.0000       0.4000       0.0000       
 P1945                           J1388                           J1582                                28.6032       8.0000       0.4000       0.0000       
 P1947                           J1582                           J1392                               130.8602       8.0000       0.4000       0.0000       
 P1949                           J1538                           J1442                               659.7248       8.0000       0.4000       0.0000        ;Maple Grove E
 P195                            J268                            J270                                383.5717       8.0000       1.0000       0.0000       
 P1951                           J1456                           J2124                               376.8846      12.0000       0.4000       0.0000        ;Sunrise Ranch C
 P1953                           J1522                           J2040                               105.1320       8.0000       1.0000       0.0000        ;Harvest Park N
 P1955                           J1646                           J2038                               136.3493       8.0000       1.0000       0.0000        ;Harvest Park O
 P1957                           J1542                           J1528                              1107.9489      12.0000       1.0000       0.0000       
 P1959                           J652                            J1440                               232.3325       8.0000       1.0000       0.0000       
 P1961                           J1440                           J1540                               364.2112       8.0000       1.0000       0.0000       
 P1963                           J836                            J770                                479.5265       8.0000       1.0000       0.0000       
 P1965                           J1548                           J1396                                 8.9658       8.0000       1.0000       0.0000       
 P1967                           J1634                           J1530                               765.8147       8.0000       1.0000       0.0000       
 P1969                           J1644                           J1648                               374.4350       8.0000       1.0000       0.0000        ;Harvest Park P
 P197                            J272                            J276                                327.0083       8.0000       1.0000       0.0000       
 P1971                           J1658                           J778                                  0.5919       8.0000       1.0000       0.0000        ;New Pipe
 P1973                           J826                            J854                                 25.4112       8.0000       1.0000       0.0000       
 P1975                           J846                            J842                                227.1833      12.0000       1.0000       0.0000       
 P1977                           J764                            J1678                               314.5178      12.0000       1.0000       0.0000       
 P1979                           J770                            J802                                254.1942      12.0000       1.0000       0.0000       
 P1981                           J842                            J1682                               181.4606      12.0000       1.0000       0.0000       
 P1983                           J798                            J1268                               124.7621      12.0000       1.0000       0.0000       
 P1985                           J1254                           J1264                               187.8730      12.0000       1.0000       0.0000       
 P1987                           J1258                           J1254                               252.8441      12.0000       1.0000       0.0000       
 P1989                           J1262                           J1258                               211.1241      12.0000       1.0000       0.0000       
 P199                            J276                            J278                                278.6518       8.0000       1.0000       0.0000       
 P1991                           J1268                           J1262                               130.3413      12.0000       1.0000       0.0000       
 P1993                           J800                            J764                                252.7803      12.0000       1.0000       0.0000       
 P1995                           J802                            J800                                  7.6466      12.0000       1.0000       0.0000       
 P1997                           J1264                           J1248                                65.4764      12.0000       1.0000       0.0000       
 P1999                           J668                            J640                                 14.3327       8.0000       1.0000       0.0000       
 P2001                           J674                            J670                                628.9305       8.0000       1.0000       0.0000       
 P2003                           J672                            J648                                112.8750      12.0000       1.0000       0.0000       
 P2005                           J644                            J672                                 12.1786      12.0000       1.0000       0.0000       
 P2007                           J348                            J1734                               172.1481      12.0000       1.0000       0.0000       
 P2009                           J360                            J2852                               558.6613      12.0000       1.0000       0.0000       
 P201                            J280                            J282                                655.8632       8.0000       1.0000       0.0000       
 P2011                           J356                            J360                                 76.7440      12.0000       1.0000       0.0000       
 P2013                           J414                            J356                                656.8153      12.0000       1.0000       0.0000       
 P2015                           J410                            J406                                 13.8143       6.0000       1.0000       0.0000       
 P2017                           J406                            J352                                709.8778       6.0000       1.0000       0.0000       
 P2019                           J354                            J192                                  3.2018      12.0000       1.0000       0.0000       
 P2021                           J404                            J354                                  2.7048      12.0000       1.0000       0.0000       
 P2023                           J400                            J404                                 11.7967       8.0000       1.0000       0.0000       
 P2025                           J752                            J746                                 31.0053       8.0000       1.0000       0.0000       
 P2027                           T5_CROWD                        J1276                               792.0867      12.0000       1.0000       0.0000       
 P2029                           J1500                           J342                               3639.0811       6.0000       1.0000       0.0000       
 P203                            J284                            J286                                989.7588       8.0000       1.0000       0.0000       
 P2031                           J340                            J738                                 10.7650      12.0000       1.0000       0.0000       
 P2033                           J738                            J732                                374.5578      12.0000       1.0000       0.0000       
 P2035                           J732                            J338                               1275.0211      12.0000       1.0000       0.0000       
 P2037                           J336                            J1772                               377.8556      12.0000       1.0000       0.0000       
 P2039                           J346                            J336                                 27.4801      12.0000       1.0000       0.0000       
 P2041                           J976                            J334                                  1.3433      12.0000       1.0000       0.0000       
 P2043                           J1660                           J1098                               268.2249       6.0000       1.0000       0.0000       
 P2045                           J1660                           J1076                               649.7763       8.0000       1.0000       0.0000       
 P2047                           J1662                           J1106                               259.1919       8.0000       1.0000       0.0000       
 P2049                           J1662                           J1110                               783.4876       8.0000       1.0000       0.0000       
 P205                            J286                            J288                                950.3415       8.0000       1.0000       0.0000       
 P2051                           J1664                           J1116                               316.2654       8.0000       1.0000       0.0000       
 P2053                           J1664                           J1672                               786.8871       8.0000       1.0000       0.0000       
 P2055                           J1666                           J1140                               635.6104       8.0000       1.0000       0.0000       
 P2057                           J1666                           J1124                               370.2752       8.0000       1.0000       0.0000       
 P2059                           J1668                           J1764                               796.8683       8.0000       1.0000       0.0000       
 P2061                           J1668                           J1152                               704.9324       8.0000       1.0000       0.0000       
 P2063                           J1670                           J876                                550.2074       6.0000       1.0000       0.0000       
 P2065                           J1670                           J874                                401.6928       6.0000       1.0000       0.0000       
 P2067                           J1672                           J1132                               343.0164       8.0000       1.0000       0.0000       
 P2069                           J1672                           J1114                               290.8781       8.0000       1.0000       0.0000       
 P207                            J290                            J294                                  9.0401       8.0000       1.0000       0.0000       
 P2071                           J374                            J378                                 24.8380       8.0000       1.0000       0.0000       
 P2073                           J1000                           J994                                 15.7374       8.0000       1.0000       0.0000       
 P2075                           J1398                           J52                                 950.1797       8.0000       1.0000       0.0000       
 P2077                           J1674                           J90                                  24.6257       8.0000       1.0000       0.0000       
 P2079                           J1674                           J96                                 269.0748       8.0000       1.0000       0.0000       
 P2081                           J1676                           J1590                               275.3900      12.0000       1.0000       0.0000       
 P2083                           J1676                           J316                                732.2663       8.0000       1.0000       0.0000       
 P2085                           J1378                           J860                                211.8566       6.0000       1.0000       0.0000       
 P2087                           J1678                           J766                                 23.1158       8.0000       1.0000       0.0000       
 P2089                           J1678                           J798                                109.7256      12.0000       1.0000       0.0000       
 P209                            J294                            J2616                               653.3422       8.0000       1.0000       0.0000       
 P2091                           J1680                           J790                                233.9749       8.0000       1.0000       0.0000       
 P2093                           J1680                           J786                                554.8414       8.0000       1.0000       0.0000       
 P2095                           J1682                           J842                                364.6439       8.0000       1.0000       0.0000       
 P2097                           J1682                           J770                                251.0560      12.0000       1.0000       0.0000       
 P2099                           J1684                           J820                               1384.6482       8.0000       1.0000       0.0000       
 P21                             J16                             J24                                 512.7873       8.0000       1.0000       0.0000       
 P2101                           J1684                           J832                                293.4035       8.0000       1.0000       0.0000       
 P2103                           J1686                           J1656                               462.8457      12.0000       1.0000       0.0000       
 P2105                           J1686                           J590                                627.6323       8.0000       1.0000       0.0000       
 P2107                           J1688                           J592                                221.2446       8.0000       1.0000       0.0000       
 P2109                           J1688                           J1652                               222.2971       8.0000       1.0000       0.0000        ;New Pipe
 P211                            J298                            J304                                998.9301       8.0000       1.0000       0.0000       
 P2111                           J1690                           J966                                653.9155       8.0000       1.0000       0.0000       
 P2113                           J1690                           J358                                 11.9951       8.0000       1.0000       0.0000       
 P2117                           J1692                           J962                                633.6400       8.0000       1.0000       0.0000       
 P2119                           J240                            J250                                 11.9192       6.0000       1.0000       0.0000        ;connect
 P2121                           J248                            J244                                 36.5931       6.0000       1.0000       0.0000        ;added
 P2123                           J1694                           J1310                              1158.8527      12.0000       1.0000       0.0000       
 P2125-1600S                     PRV_Z3-Z2_1600S_ND              J1696                                 4.3392      12.0000       1.0000       0.0000        ;Connecting pipe
 P2127                           J34                             PRV_Z2-Z1_1600N_NU                    6.8683       8.0000       1.0000       0.0000        ;Connecting pipe
 P2129-400N                      PRV_Z2-Z1_400N_ND               J232                                 53.0695      12.0000       1.0000       0.0000        ;Connecting pipe
 P213                            J302                            J888                                438.2051       8.0000       1.0000       0.0000       
 P2131-1600S                     PRV_Z2-Z1_1600S_ND              J472                                405.1968      12.0000       1.0000       0.0000        ;Connecting pipe
 P2133-TWINHOLLOW                PRV_Z3-Z2_HIDDENNORTH_ND        J1698                                14.4469      12.0000       0.4000       0.0000        ;Connecting pipe
 P2135                           J1698                           J2338                               581.8846      12.0000       0.4000       0.0000        ;Hidden Hollow Cove B
 P2137-TWINH                     PRV_Z2-Z1_LOWERTWINHOLLOW_ND    J2330                               372.5261       8.0000       1.0000       0.0000        ;Connecting pipe
 P2139-MAIN                      PRV_Z2-Z1_SOUTHMAIN_ND          J898                                333.7913      12.0000       0.4000       0.0000        ;Connecting pipe
 P2141                           J1626                           CONTROL_MAPLEBENCH_NU                 9.5844      16.0000       1.0000       0.0000        ;Connecting pipe
 P2143                           J154                            PRV_MAPLECANYON_NU                   47.9936      16.0000       1.0000       0.0000        ;Connecting pipe
 P2145                           PRV_MAPLE-Z3_LOWERTANKS_ND      J170                                  2.9690      12.0000       1.0000       0.0000        ;Connecting pipe
 P2147-LOWERTANK                 PRV_MAPLE-Z2_LOWERTANK_ND       J166                                  5.0396      12.0000       1.0000       0.0000        ;Connecting pipe
 P2149                           J190                            PMP_BOOSTER2_NU                       7.3941      12.0000       1.0000       0.0000        ;Connecting pipe
 P215                            J306                            J890                                173.4642       8.0000       1.0000       0.0000       
 P2151                           PMP_BOOSTER2_ND                 J158                                  7.4860      12.0000       1.0000       0.0000        ;Connecting pipe
 P2153                           J178                            J2630                                62.5425      12.0000       1.0000       0.0000       
 P2155                           J1700                           PMP_BOOSTER1_NU                      13.9265      12.0000       1.0000       0.0000        ;Connecting pipe
 P2157                           J1706                           J1032                               903.4702       8.0000       1.0000       0.0000       
 P2159                           RES_SEALWELL                    J1702                               200.0000      12.0000       1.0000       0.0000       
 P2161                           J1702                           PMP_SEAL_NU                           8.8453      12.0000       1.0000       0.0000        ;Connecting pipe
 P2163                           PMP_SEAL_ND                     J1704                                 9.0683      12.0000       1.0000       0.0000        ;Connecting pipe
 P2165                           J1704                           J1706                                31.7762      12.0000       1.0000       0.0000       
 P2167                           RES_CARNESECCAWELL              J1708                               250.0000      12.0000       1.0000       0.0000       
 P2169                           J1708                           PMP_CARNESECCA_NU                     9.2904      12.0000       1.0000       0.0000        ;Connecting pipe
 P217                            J310                            J296                                 21.4538       8.0000       1.0000       0.0000       
 P2171                           PMP_CARNESECCA_ND               J36                                  11.1819      12.0000       1.0000       0.0000        ;Connecting pipe
 P2173                           RES_WESTWOODWELL                J1710                               200.0000      12.0000       1.0000       0.0000       
 P2175                           J1710                           PMP_WESTWOOD_NU                      10.0059      12.0000       1.0000       0.0000        ;Connecting pipe
 P2177                           PMP_WESTWOOD_ND                 J522                                 10.8036      12.0000       1.0000       0.0000        ;Connecting pipe
 P2179                           RES_CROWD                       J1712                               460.0000      12.0000       1.0000       0.0000       
 P2181                           J1712                           PMP_CROWD_NU                         14.5623      12.0000       1.0000       0.0000        ;Connecting pipe
 P2183                           PMP_CROWD_ND                    J1270                                15.9311      12.0000       1.0000       0.0000        ;Connecting pipe
 P2185                           J1312                           J468                                  9.5990      12.0000       1.0000       0.0000       
 P2187                           J1714                           J404                                  6.6417      12.0000       1.0000       0.0000       
 P2189                           J252                            J138                                 52.3822       6.0000       1.0000       0.0000       
 P2191                           J1716                           J414                                613.5595      12.0000       1.0000       0.0000       
 P2193                           J1718                           J1716                                 7.8726      12.0000       1.0000       0.0000       
 P2195                           J820                            J814                                  1.7284       8.0000       1.0000       0.0000       
 P2197                           J1720                           J252                                649.6539       6.0000       1.0000       0.0000       
 P2199-Z2-Z1-MAPLE               J1722                           J400                                 61.5573       8.0000       1.0000       0.0000 CLOSED ;close at pressure boundary, City confirms at 1/26/21 review
 P2201                           J430                            PRV_Z2-Z1_400S_NU                   144.1655       8.0000       1.0000       0.0000        ;Connecting pipe
 P2203-1200E                     J1726                           J974                                132.9603       8.0000       1.0000       0.0000 CLOSED ;close at pressure boundary
 P2205                           J1098                           J1598                               343.0029       8.0000       1.0000       0.0000        ;added per 1/26/21 review with City
 P2207                           J204                            PRV_Z3-Z2_850N1800E_NU              359.5879      12.0000       1.0000       0.0000        ;Connecting pipe
 P2209-850N                      PRV_Z3-Z2_850N1800E_ND          J1628                               286.8627      12.0000       1.0000       0.0000        ;Connecting pipe
 P221                            J316                            J318                                306.3870       8.0000       1.0000       0.0000       
 P2211                           J1732                           J290                                737.6048       6.0000       1.0000       0.0000       
 P2213                           J1454                           J2112                               662.0834      12.0000       1.0000       0.0000        ;added per 1/26/21 review with City
 P2215                           J1734                           J346                                843.0559      12.0000       1.0000       0.0000       
 P2217                           J1734                           J1498                              1308.1277       8.0000       1.0000       0.0000        ;Mapleton 340 Lake. added per 1/26/21 review with City
 P2219                           J1498                           J1736                              1087.6982       8.0000       1.0000       0.0000        ;Mapleton 340 Lake. added per 1/26/21 review with City
 P2221                           J1738                           J2440                               714.7952      16.0000       1.0000       0.0000        ;Maple Bench
 P2223                           J1738                           J2516                              1179.9536       8.0000       1.0000       0.0000        ;added per 1/26/21 review with City
 P2225-EAGLECT                   PRV_Z3-Z2_EAGLECOURT_ND         J444                                 31.5057       8.0000       1.0000       0.0000        ;Connecting pipe
 P2227                           J1740                           J436                               1257.2060       8.0000       1.0000       0.0000        ;pipe size changed back to GIS diameter per City review meeti
 P223                            J320                            J1676                                22.1038      12.0000       1.0000       0.0000       
 P2231-DOGWOOD                   PRV_Z2-Z1_400S_ND               J1724                               133.9519       8.0000       1.0000       0.0000        ;Connecting pipe
 P2233                           J506                            J1742                               153.0731      12.0000       1.0000       0.0000        ;Mapleton Heights
 P2235                           J1742                           J2212                               351.9965      12.0000       1.0000       0.0000        ;Mapleton Heights
 P2237                           J1744                           J1746                               258.1001      12.0000       1.0000       0.0000        ;Mapleton Heights
 P2239                           J1746                           J1750                               270.6186      12.0000       1.0000       0.0000        ;Mapleton Heights
 P2241                           J1750                           J1748                               343.7535      12.0000       1.0000       0.0000        ;Mapleton Heights
 P2243                           J1748                           J2218                               699.1083      12.0000       1.0000       0.0000        ;Mapleton Heights
 P2245                           J1754                           J532                               1065.1551      12.0000       1.0000       0.0000       
 P2247                           J1752                           J2808                               723.0000      12.0000       1.0000       0.0000        ;Mapleton Heights
 P2249                           J1756                           J1406                                10.0216       8.0000       1.0000       0.0000       
 P225                            J322                            J326                                 26.6603      12.0000       1.0000       0.0000       
 P2251                           J1758                           J36                                 425.8332      10.0000       1.0000       0.0000        ;Carnesecca well to system
 P2253                           J1758                           J1756                                24.9173      10.0000       1.0000       0.0000        ;Carnesecca well to lower zone
 P2255                           J1760                           J1758                                 3.2659      10.0000       1.0000       0.0000 CLOSED ;Carnesecca well to Upper zone
 P2259                           J1764                           J1168                               530.6115       8.0000       1.0000       0.0000       
 P2265                           J1772                           J976                                190.0742      12.0000       1.0000       0.0000       
 P2269                           J1776                           J568                                697.3965      12.0000       1.0000       0.0000       
 P227                            J326                            J328                                504.9860       8.0000       1.0000       0.0000       
 P2271                           J1778                           J738                                 73.7676       8.0000       1.0000       0.0000       
 P2273                           J1780                           J732                                277.8015       8.0000       1.0000       0.0000       
 P2275                           J1782                           J1706                               226.9405       8.0000       1.0000       0.0000       
 P2277                           J1784                           J1404                               687.8327       8.0000       0.4000       0.0000        ;Northridge
 P2279                           J1786                           J526                                262.6564       8.0000       1.0000       0.0000       
 P2281                           J1788                           J1848                               241.3811      12.0000       1.0000       0.0000       
 P2283                           J1790                           J30                                 305.2623       8.0000       1.0000       0.0000       
 P2285                           J1792                           J470                                223.6915      12.0000       1.0000       0.0000       
 P2287                           J1794                           J1348                               217.5922       8.0000       1.0000       0.0000       
 P229                            J330                            J332                                 23.7621       8.0000       1.0000       0.0000       
 P2291                           J1448                           J1796                               120.0367       8.0000       1.0000       0.0000        ;Mapleton Grove D
 P2293                           J1538                           J1796                               870.5099       8.0000       1.0000       0.0000        ;Maple Grove D
 P2295                           J1796                           J2192                               300.5442       8.0000       1.0000       0.0000        ;Mapleton Grove D
 P2297                           J1648                           J1800                                99.8726       8.0000       1.0000       0.0000        ;Harvest Park P
 P2299                           J1524                           J1798                               203.0562       8.0000       1.0000       0.0000        ;Harvest Park P
 P23                             J18                             J206                                 47.3063       8.0000       1.0000       0.0000       
 P231                            J324                            J346                                 23.4163      12.0000       1.0000       0.0000       
 P2311                           J1812                           J62                                 185.3125       6.0000       1.0000       0.0000       
 P2313                           J1812                           J1814                               456.1836       8.0000       1.0000       0.0000        ;Collard
 P2315                           J1816                           J1414                               231.0599       8.0000       0.4000       0.0000        ;Dalllins Subdivision A
 P2317                           J1818                           J1816                               282.7828       8.0000       0.4000       0.0000        ;Dalllins Subdivision A
 P2319                           J1820                           J1818                               280.9532       8.0000       0.4000       0.0000        ;Dalllins Subdivision A
 P2321                           J1822                           J1824                               153.6458       8.0000       1.0000       0.0000        ;Maple Mountain View D
 P2323                           J96                             J1826                               208.9541       8.0000       1.0000       0.0000        ;Mee Estates
 P2325                           J1824                           J1516                               226.5775       8.0000       1.0000       0.0000        ;Maple Mountain View D
 P2327                           J1826                           J1822                               150.4107       8.0000       1.0000       0.0000        ;Mee Estates
 P2329                           J1828                           J1632                               230.8630       8.0000       1.0000       0.0000       
 P233                            J336                            J758                                243.1770      12.0000       1.0000       0.0000       
 P2331                           J1830                           J1828                               200.4044       8.0000       1.0000       0.0000        ;Kent Evans
 P2333                           J234                            J1832                               160.1733       8.0000       1.0000       0.0000        ;Zimmerman
 P2335                           J238                            J1832                               333.6463       8.0000       1.0000       0.0000        ;Zimmerman
 P2337                           J1834                           J204                                657.7487      12.0000       1.0000       0.0000       
 P2341                           J1838                           J226                                109.7709       8.0000       1.0000       0.0000        ;Vineyard at Maple Canyon
 P2343                           J1840                           J366                                 67.1162       8.0000       1.0000       0.0000        ;Diamond Corner
 P2345                           J1842                           J1720                               444.2600       8.0000       1.0000       0.0000       
 P2347                           J1844                           J1842                               240.1458       8.0000       1.0000       0.0000        ;Diamond Fields
 P2349                           J1842                           J1846                               315.8415       8.0000       1.0000       0.0000        ;Diamond Fields
 P235                            J340                            J1500                                32.4521       6.0000       1.0000       0.0000       
 P2351                           J1848                           J146                                163.8418      12.0000       1.0000       0.0000       
 P2353                           J1850                           J1848                               175.1060       8.0000       1.0000       0.0000        ;Ball Subdivision
 P2355                           J1852                           PRV_Z2-Z1_400N_NU                   442.6501      12.0000       1.0000       0.0000        ;Connecting pipe
 P2357                           J1852                           J1854                               203.5989       8.0000       1.0000       0.0000        ;Kendall
 P2359                           J408                            J1856                               161.9128       8.0000       1.0000       0.0000        ;Maple Haven
 P2361                           J322                            J1858                                79.1807       8.0000       1.0000       0.0000        ;Sugar Dance
 P2363                           J1860                           J388                                354.6116       8.0000       1.0000       0.0000       
 P2365                           J1862                           J1860                                79.3895       8.0000       1.0000       0.0000        ;Maple View Estates B
 P2367                           J1514                           J1864                               253.7549       8.0000       1.0000       0.0000        ;Whitehorse Estates
 P2369                           J1514                           J1866                               157.8973       8.0000       1.0000       0.0000        ;Whitehorse Estates
 P237                            J344                            J348                                 12.6555      12.0000       1.0000       0.0000       
 P2371                           J1866                           J1868                               272.3719       8.0000       1.0000       0.0000        ;Whitehorse Estates
 P2373                           J1870                           J1514                               265.4188       8.0000       1.0000       0.0000       
 P2375                           J1874                           J1870                               299.3624       8.0000       1.0000       0.0000        ;The Estates at Mapleton
 P2377                           J1872                           J1870                               184.0072       8.0000       1.0000       0.0000        ;The Estates at Mapleton
 P2379                           J1876                           J1020                               244.4177       8.0000       1.0000       0.0000       
 P2381                           J1878                           J1018                               616.5844      12.0000       1.0000       0.0000       
 P2383                           J1880                           J1878                               159.5619       8.0000       1.0000       0.0000        ;Hardman
 P2385                           J1882                           J1060                               317.8722       8.0000       1.0000       0.0000       
 P2387                           J1884                           J1882                                95.7217       8.0000       1.0000       0.0000        ;Blackett
 P2389                           J1886                           J1600                               155.2917       8.0000       1.0000       0.0000        ;Hidden Lane Estates
 P239                            J348                            J1204                               662.6118       8.0000       1.0000       0.0000       
 P2391                           J24                             J1888                               367.6308       8.0000       1.0000       0.0000        ;Lindley
 P2393                           J1888                           J1890                               276.0417       8.0000       1.0000       0.0000        ;Lindley
 P2395                           J1890                           J1892                               236.3591       8.0000       1.0000       0.0000        ;Lindley
 P2399                           J1894                           J1706                               186.0739       8.0000       1.0000       0.0000        ;Perrero
 P2401                           J1896                           J1102                               646.4799       8.0000       1.0000       0.0000       
 P2403                           J1898                           J1896                               217.3654       8.0000       1.0000       0.0000       
 P2405                           J1902                           J1896                               129.1041       8.0000       1.0000       0.0000        ;Francis E
 P2407                           J1900                           J1898                               119.5251       8.0000       1.0000       0.0000        ;Francis
 P2409                           J1904                           J1384                               174.6261       8.0000       0.4000       0.0000        ;Holly Farm Estates A
 P241                            J342                            J410                               2255.0835       6.0000       1.0000       0.0000       
 P2411                           J1906                           J302                                253.6424       8.0000       1.0000       0.0000        ;Maple Valley Estates
 P2413                           J308                            J1910                               330.3227       8.0000       1.0000       0.0000        ;Whiting Farm
 P2415                           J1910                           J1908                               340.3176       8.0000       1.0000       0.0000        ;Whiting Farm
 P2417                           J1910                           J1914                               324.2626       8.0000       1.0000       0.0000        ;Whiting Farm
 P2419                           J1914                           J1912                               304.1367       8.0000       1.0000       0.0000        ;Whiting Farm
 P2421                           J1914                           J1916                               387.1372       8.0000       1.0000       0.0000        ;Whiting Farm
 P2423                           J1916                           J2010                               586.2597       8.0000       1.0000       0.0000        ;Whiting Farm
 P2425                           J1920                           J1918                               267.4118       8.0000       1.0000       0.0000        ;Whiting Farm C
 P2427                           J1918                           J1508                               331.7361       8.0000       1.0000       0.0000        ;Whiting Farm C
 P2429                           J1922                           J1504                               324.1794       8.0000       1.0000       0.0000        ;Walter Farms
 P243                            J354                            J352                                  5.6336       6.0000       1.0000       0.0000       
 P2431                           J1924                           J310                                326.3356       8.0000       1.0000       0.0000       
 P2433                           J1924                           J1926                               115.4467       8.0000       1.0000       0.0000        ;Walter Farms
 P2435                           J1916                           J1932                               248.0715       8.0000       1.0000       0.0000        ;Whiting Farm
 P2437                           J1932                           J1938                               154.6291       8.0000       1.0000       0.0000        ;Whiting Farm B
 P2439                           J992                            J1938                               435.3269       8.0000       1.0000       0.0000        ;Whiting Farm B
 P2441                           J1938                           J1928                               462.3669       8.0000       1.0000       0.0000        ;Whiting Farm B
 P2443                           J1928                           J1930                               319.3719       8.0000       1.0000       0.0000        ;Whiting Farm B
 P2445                           J1928                           J1934                               590.3416       8.0000       1.0000       0.0000        ;Whiting Farm B
 P2447                           J1930                           J1936                               607.6389       8.0000       1.0000       0.0000        ;Whiting Farm B
 P2449                           J1934                           J1936                               310.3374       8.0000       1.0000       0.0000        ;Whiting Farm B
 P245                            J192                            J1718                               712.0906      12.0000       1.0000       0.0000       
 P2451                           J1502                           J1940                               121.3336       8.0000       1.0000       0.0000        ;Bluth
 P2453                           J1940                           J1942                                85.6546       8.0000       1.0000       0.0000        ;Bryson Strong
 P2457                           J1946                           J1502                               228.4590       8.0000       1.0000       0.0000       
 P2459                           J1948                           J1946                               247.9068       8.0000       1.0000       0.0000        ;Bentley Brook
 P2461                           J1946                           J1950                               109.1408       8.0000       1.0000       0.0000        ;Bluth
 P247                            J356                            J2846                              1504.5081       8.0000       1.0000       0.0000       
 P2471                           J1958                           J1580                               624.9377       8.0000       1.0000       0.0000        ;Whisper Rock C
 P2477                           J1962                           J1360                               141.7570       8.0000       1.0000       0.0000        ;Fox Hollow
 P2479                           J1962                           J1964                                76.5519       8.0000       1.0000       0.0000        ;Fox Hollow Townhomes
 P2481                           J1966                           J1640                               490.6765       8.0000       1.0000       0.0000        ;Dignity Care
 P2483                           J1968                           J1638                               540.2467       8.0000       1.0000       0.0000        ;Dignity Care
 P2485                           J1970                           J1642                               178.7265       8.0000       1.0000       0.0000        ;Dignity Care
 P2487                           J1974                           J850                                138.8368       8.0000       1.0000       0.0000       
 P2489                           J1972                           J1974                                57.8514       8.0000       1.0000       0.0000        ;Alvey Dr Office Warehouse
 P249                            J360                            J420                                814.9222       8.0000       1.0000       0.0000       
 P2491                           J1976                           J1428                               238.2149       8.0000       1.0000       0.0000        ;Maple Grove Middle School
 P25                             J28                             J1790                               589.2575       8.0000       1.0000       0.0000       
 P2501                           J1984                           J1988                               221.2805       8.0000       1.0000       0.0000       
 P2505                           J1988                           J702                                 90.1227       8.0000       1.0000       0.0000       
 P2509                           J1992                           J704                                291.2353       8.0000       1.0000       0.0000       
 P251                            J364                            J366                                579.0947       8.0000       1.0000       0.0000       
 P2519                           J2008                           J334                                335.7044      12.0000       1.0000       0.0000       
 P253                            J366                            J1206                               110.2526       8.0000       1.0000       0.0000       
 P2535                           J2010                           J1920                               233.1848       8.0000       1.0000       0.0000        ;Whiting Farm
 P2537                           J1506                           J2010                               204.4639       8.0000       1.0000       0.0000        ;Whiting Farm
 P2539                           J1930                           J2014                               139.6456       8.0000       1.0000       0.0000        ;Whiting Farm B
 P2541                           J2014                           J2012                               239.1136       8.0000       1.0000       0.0000        ;Whiting Farm C
 P2543                           J2012                           J2016                               190.3607       8.0000       1.0000       0.0000        ;Whiting Farm C
 P2545                           J1918                           J2012                               372.2353       8.0000       1.0000       0.0000        ;Whiting Farm C
 P2547                           J1938                           J1940                               488.8127       8.0000       1.0000       0.0000        ;Bryson Strong
 P2549                           J2018                           J1924                                66.6530       8.0000       1.0000       0.0000       
 P255                            J368                            J374                                 30.4709       8.0000       1.0000       0.0000       
 P2551                           J2018                           J1868                               524.5178       8.0000       1.0000       0.0000        ;Whitehorse Estates
 P2553                           J2020                           J1864                               143.3902       8.0000       1.0000       0.0000        ;Whitehorse Estates
 P2555                           J2022                           J1052                               894.6021       6.0000       1.0000       0.0000       
 P2557                           J1894                           J2022                               208.9262       8.0000       1.0000       0.0000        ;Perrero
 P2559                           J2024                           J1826                               209.8162       8.0000       1.0000       0.0000        ;Mee Estates
 P2563                           J2028                           J1612                               147.5593       8.0000       1.0000       0.0000        ;Thatchill Estates
 P2565                           J2030                           J1494                               298.0308       8.0000       1.0000       0.0000        ;Copperhead Estates
 P2567                           J2032                           J1256                               255.2228       8.0000       1.0000       0.0000        ;Harvest Park M
 P2569                           J2034                           J792                                385.3003       8.0000       1.0000       0.0000        ;Harvest Park M
 P257                            J256                            J372                                  3.3070       8.0000       1.0000       0.0000       
 P2571                           J2036                           J2044                                98.6942       8.0000       1.0000       0.0000        ;Harvest Park O
 P2573                           J2038                           J1524                               224.8013       8.0000       1.0000       0.0000        ;Harvest Park P
 P2575                           J2040                           J1520                               109.2334       8.0000       1.0000       0.0000        ;Harvest Park N
 P2577                           J2042                           J1526                               163.5028       8.0000       1.0000       0.0000        ;Harvest Park N
 P2579                           J2044                           J1646                                89.6992       8.0000       1.0000       0.0000        ;Harvest Park O
 P2581                           J2046                           J1646                               141.2845       8.0000       1.0000       0.0000        ;Harvest Park O
 P2583                           J2048                           J668                                937.4798       8.0000       1.0000       0.0000       
 P2585                           J2048                           J2050                               205.2543       8.0000       1.0000       0.0000        ;Whiting Cove E
 P2587                           J2050                           J2052                               381.6040       8.0000       1.0000       0.0000        ;Whiting Cove E
 P2589                           J2050                           J2054                               321.9262       8.0000       1.0000       0.0000        ;Whiting Cove E
 P259                            J374                            J2424                               451.3621       8.0000       1.0000       0.0000       
 P2591                           J2056                           J2048                               454.9151       8.0000       1.0000       0.0000       
 P2593                           J2054                           J2058                               127.0814       8.0000       1.0000       0.0000        ;Whiting Cove F
 P2595                           J2058                           J2056                               201.1881       8.0000       1.0000       0.0000        ;Whiting Cove F
 P2597                           J2060                           J1560                                25.8220       8.0000       1.0000       0.0000        ;Whiting Cove D
 P2599                           J2062                           J1586                               177.8608       8.0000       1.0000       0.0000        ;Whiting Cove B
 P2601                           J2064                           J1558                               225.7449       8.0000       1.0000       0.0000        ;Whiting Cove B
 P2603                           J2066                           J1586                               307.4082       8.0000       1.0000       0.0000        ;Whiting Cove B
 P2605                           J2068                           J1570                               136.3041       8.0000       1.0000       0.0000        ;Emerald Estates D
 P2607                           J2070                           J1574                               825.0777       8.0000       1.0000       0.0000       
 P2609                           J2070                           J2072                               220.0130       8.0000       1.0000       0.0000        ;Young
 P261                            J378                            J380                                486.1580       8.0000       1.0000       0.0000       
 P2611                           J2074                           J630                                930.1374      12.0000       1.0000       0.0000        ;1600 South
 P2613                           J2074                           J2076                                30.4933      12.0000       1.0000       0.0000        ;1600 South
 P2615                           J2076                           J2078                               160.6278       8.0000       1.0000       0.0000        ;Maple Fields
 P2617                           J2078                           J2080                               843.0872       8.0000       1.0000       0.0000        ;Maple Fields
 P2619                           J2080                           J2078                               858.3959       8.0000       1.0000       0.0000        ;Maple Fields
 P2621                           J2076                           J552                                786.9071      12.0000       1.0000       0.0000       
 P2623                           J2082                           J552                                223.0900       8.0000       1.0000       0.0000       
 P2627                           J2086                           J556                                643.5835       8.0000       1.0000       0.0000       
 P2629                           J2088                           J2086                                83.7729       8.0000       1.0000       0.0000        ;Sherman Farms
 P263                            J380                            J382                                555.2468       8.0000       1.0000       0.0000       
 P2631                           J2090                           J556                                454.6283       8.0000       1.0000       0.0000       
 P2633                           J2090                           J2092                                56.2579       8.0000       1.0000       0.0000        ;Valley View Estates C
 P2635                           J2094                           J2098                               198.6705       8.0000       0.4000       0.0000        ;Maple Vale A
 P2637                           J2096                           J2094                               186.6064       8.0000       1.0000       0.0000        ;Maple Vale A
 P2639                           J2098                           J1462                               371.4585       8.0000       0.4000       0.0000        ;Magnolia Lane
 P2641                           J924                            J2104                                22.4050       8.0000       1.0000       0.0000        ;Preserve E
 P2643                           J2100                           J908                                173.6325       8.0000       1.0000       0.0000        ;Preserve E
 P2645                           J2104                           J2100                               318.0618       8.0000       1.0000       0.0000        ;Preserve E
 P265                            J382                            J384                                465.4823       8.0000       1.0000       0.0000       
 P2651                           J2108                           J830                                376.5783       8.0000       1.0000       0.0000       
 P2653                           J2110                           J2108                                72.3656       8.0000       1.0000       0.0000        ;Harvest Park Office
 P2655                           J2112                           J1732                               642.5957      12.0000       1.0000       0.0000        ;added per 1/26/21 review with City
 P2659                           J2114                           J2112                               236.8320       8.0000       1.0000       0.0000        ;Sunrise Ranch A
 P2663                           J2124                           J1452                               157.5885      12.0000       0.4000       0.0000        ;Sunrise Ranch C
 P267                            J386                            J2558                               298.7133       8.0000       1.0000       0.0000       
 P2671                           J2126                           J1454                               248.6059       8.0000       1.0000       0.0000        ;Sunrise Ranch D
 P2673                           J2128                           J2126                               280.7303       8.0000       1.0000       0.0000        ;Sunrise Ranch D
 P2675                           J2130                           J2128                               368.5164       8.0000       1.0000       0.0000        ;Sunrise Ranch D
 P2677                           J2132                           J2130                               722.8176       8.0000       1.0000       0.0000        ;Sunrise Ranch D
 P2679                           J2134                           J2132                               286.7439       8.0000       1.0000       0.0000        ;Sunrise Ranch D
 P2681                           J2136                           J2134                               251.6876       8.0000       1.0000       0.0000        ;Sunrise Ranch D
 P2683                           J2136                           J2138                               919.6525       8.0000       1.0000       0.0000        ;Sunrise Ranch E
 P2685                           J2134                           J2140                               741.7739       8.0000       1.0000       0.0000        ;Sunrise Ranch F
 P2689                           J2138                           J2126                               988.5694       8.0000       1.0000       0.0000        ;Sunrise Ranch E
 P269                            J390                            J392                                276.7464       8.0000       1.0000       0.0000       
 P2691                           J2140                           J2128                               764.5611       8.0000       1.0000       0.0000        ;Sunrise Ranch F
 P2695                           J2124                           J2138                               284.8474       8.0000       1.0000       0.0000        ;Sunrise Ranch E
 P2697                           J2138                           J2140                               274.1470       8.0000       1.0000       0.0000        ;Sunrise Ranch F
 P27                             J32                             J1398                               313.7422       8.0000       1.0000       0.0000       
 P271                            J394                            J396                                105.6334       8.0000       1.0000       0.0000       
 P273                            J398                            J228                                665.9016       8.0000       1.0000       0.0000       
 P275                            J402                            J400                                 19.1411       8.0000       1.0000       0.0000       
 P2753                           J2182                           J2184                               157.2945       8.0000       1.0000       0.0000        ;Maple Grove G
 P2755                           J1602                           J2184                               373.3585       8.0000       1.0000       0.0000        ;Maple Grove G
 P2757                           J2192                           J1546                               349.3759       8.0000       1.0000       0.0000        ;Mapleton Grove D
 P2759                           J2184                           J2188                               420.2254       8.0000       1.0000       0.0000        ;Maple Grove G
 P2761                           J2188                           J2194                               309.5568       8.0000       1.0000       0.0000        ;Maple Grove F
 P2763                           J2184                           J2190                               721.7274       8.0000       1.0000       0.0000        ;Maple Grove G
 P2765                           J2194                           J2192                               693.2485       8.0000       1.0000       0.0000        ;Maple Grove F
 P2767                           J2190                           J2192                               115.8879       8.0000       1.0000       0.0000        ;Maple Grove F
 P2769                           J2196                           J1548                               514.9749       8.0000       1.0000       0.0000        ;Skyridge Estates
 P277                            J1718                           J408                                697.0449       8.0000       1.0000       0.0000       
 P2779                           J2212                           J1744                               310.4401      12.0000       1.0000       0.0000        ;Mapleton Heights
 P2781                           J2218                           J2532                               371.7699       8.0000       1.0000       0.0000        ;Mapleton Heights
 P2783                           J2212                           J2214                               234.9050       8.0000       1.0000       0.0000        ;Mapleton Heights
 P2787                           J2216                           J1748                               174.0420       8.0000       1.0000       0.0000        ;Mapleton Heights
 P2789                           J1750                           J2210                               170.4827       8.0000       1.0000       0.0000        ;Mapleton Heights
 P279                            J1716                           J412                                311.9633       8.0000       1.0000       0.0000       
 P2793                           J1744                           J2206                               362.8667       8.0000       1.0000       0.0000        ;Mapleton Heights
 P2795                           J1748                           J2222                               314.7204      12.0000       1.0000       0.0000        ;Mapleton Heights
 P2801                           J2226                           J2214                               380.6774       8.0000       1.0000       0.0000        ;Mapleton Heights B
 P2807                           J2222                           J2232                               488.4122      12.0000       1.0000       0.0000        ;Mapleton Heights C
 P2809                           J2232                           J2234                               589.7727      12.0000       1.0000       0.0000        ;Mapleton Heights C
 P281                            J414                            J422                                126.5977       8.0000       1.0000       0.0000       
 P2819                           J2232                           J2242                               143.6015      12.0000       1.0000       0.0000        ;Mapleton Heights C
 P2825                           J2242                           J2246                                92.4626      12.0000       1.0000       0.0000        ;Mapleton Heights D
 P2827                           J2246                           J2514                               880.4314      12.0000       1.0000       0.0000        ;Mapleton Heights D
 P2829                           J2248                           J2250                               303.9148      12.0000       1.0000       0.0000        ;Mapleton Village A
 P283                            J418                            J420                                898.9804       8.0000       1.0000       0.0000       
 P2831                           J2250                           J2252                               390.6597       8.0000       1.0000       0.0000        ;Mapleton Village A
 P2835                           J2250                           J2260                               310.8747      12.0000       1.0000       0.0000        ;Mapleton Village A
 P2839                           J2260                           J2258                               100.8339      12.0000       1.0000       0.0000        ;Mapleton Village A
 P2843                           J2258                           J2264                               223.9583      12.0000       1.0000       0.0000        ;Mapleton Village A
 P2845                           J2264                           J2266                               107.6389       8.0000       1.0000       0.0000        ;Mapleton Village A
 P285                            J422                            J424                                477.7191       8.0000       1.0000       0.0000       
 P2853                           J2276                           J2264                               405.8348      12.0000       1.0000       0.0000        ;Mapleton Village A
 P2857                           J2276                           J2278                               142.5796      12.0000       1.0000       0.0000        ;Mapleton Village A
 P2859                           J2278                           J2280                               372.8606       8.0000       1.0000       0.0000        ;Mapleton Village A
 P2861                           J2280                           J2282                               108.3545       8.0000       1.0000       0.0000        ;Mapleton Village A
 P2863                           J2278                           J2274                               376.5557      12.0000       1.0000       0.0000        ;Mapleton Village A
 P2865                           J2274                           J2284                               132.4394      12.0000       1.0000       0.0000        ;Mapleton Village A
 P2867                           J2284                           J2286                               138.4376      12.0000       1.0000       0.0000        ;Mapleton Village B
 P287                            J402                            J428                               1345.0397       8.0000       1.0000       0.0000       
 P2887                           J2286                           J2290                               262.2367      12.0000       1.0000       0.0000        ;Mapleton Village B
 P289                            J428                            J1724                               153.7345       8.0000       1.0000       0.0000       
 P2891                           J2326                           PRV_Z2-Z1_VILLAGE_NU                 48.8782      12.0000       1.0000       0.0000        ;Connecting pipe
 P2893                           J2324                           J2322                               170.4069      12.0000       1.0000       0.0000        ;Mapleton Village B
 P2895                           J2322                           J2308                               252.9015      12.0000       1.0000       0.0000        ;Mapleton Village B
 P2897                           J2310                           J2308                               119.3013      12.0000       1.0000       0.0000        ;Mapleton Village B
 P29                             J34                             J1760                               109.6755      10.0000       1.0000       0.0000       
 P2909                           J2290                           J2306                               315.8934      12.0000       1.0000       0.0000        ;Mapleton Village B
 P291                            J430                            J448                                 10.4186       8.0000       1.0000       0.0000       
 P2911                           J2306                           J2310                               126.6400      12.0000       1.0000       0.0000        ;Mapleton Village B
 P2929                           J2280                           J2274                               315.3520       8.0000       1.0000       0.0000        ;Mapleton Village A
 P293                            J434                            J1740                               239.4444       8.0000       1.0000       0.0000        ;City indicate valve is closed here
 P2931                           J2082                           J2084                               117.5332       8.0000       1.0000       0.0000        ;Harness
 P2933                           J2330                           J544                                247.9689       8.0000       1.0000       0.0000        ;New Pipe
 P2937                           J2332                           J1470                               607.9514      12.0000       0.4000       0.0000       
 P2939                           J2334                           J1604                               459.0372       8.0000       1.0000       0.0000        ;Twin Hollow D
 P2941                           J2336                           J2348                               272.1364      12.0000       1.0000       0.0000        ;Twin Hollow C
 P2943                           J2338                           J2482                               153.6186      12.0000       0.4000       0.0000        ;Hidden Hollow A
 P2945                           J2340                           J2336                               300.3873      12.0000       1.0000       0.0000        ;Twin Hollow B
 P2947                           J2340                           J2342                               195.8983      12.0000       1.0000       0.0000        ;Twin Hollow F
 P2949                           J2342                           J2344                               260.5405      12.0000       1.0000       0.0000        ;Twin Hollow F
 P295                            J432                            J438                                505.3008       8.0000       1.0000       0.0000       
 P2951                           J2344                           J2346                               316.4507      12.0000       1.0000       0.0000        ;Twin Hollow F
 P2953                           J2348                           J1476                               412.9751      12.0000       1.0000       0.0000        ;Twin Hollow C
 P2955                           J2352                           J1608                               287.0637       8.0000       1.0000       0.0000        ;Twin Hollow D
 P2957                           J2352                           J2350                               241.8793       8.0000       1.0000       0.0000        ;Twin Hollow D
 P2959                           J2356                           J2352                               548.4809       8.0000       1.0000       0.0000        ;Twin Hollow D
 P2961                           J1518                           J2354                               260.9172       8.0000       1.0000       0.0000        ;Twin Hollow B
 P2967                           J2368                           J1476                               584.1251      12.0000       0.4000       0.0000        ;Hidden Hollow A
 P2969                           J1608                           J2360                               298.5822       8.0000       1.0000       0.0000        ;Hidden Hollow Cove B
 P297                            J438                            J456                                 13.0330       8.0000       1.0000       0.0000       
 P2971                           J2360                           J2366                               700.4776       8.0000       1.0000       0.0000        ;Hidden Hollow Cove B
 P2973                           J2360                           J2366                               469.1047       8.0000       1.0000       0.0000        ;Hidden Hollow Cove B
 P2975                           J2366                           J1698                               272.0523       8.0000       1.0000       0.0000        ;Hidden Hollow Cove B
 P2977                           J1474                           J2378                               231.0414      12.0000       1.0000       0.0000        ;Hidden Hollow Cove C
 P2979                           J2370                           J2376                               429.4250      12.0000       1.0000       0.0000        ;Hidden Hollow Cove D
 P2981                           J2376                           J2592                               311.8189      12.0000       1.0000       0.0000        ;Hidden Hollow Cove D
 P2983                           J2374                           J2372                               184.8383      16.0000       1.0000       0.0000        ;FUTURE Hidden Hollow Cove D
 P2985                           J2378                           J2370                               277.9163      12.0000       1.0000       0.0000        ;Hidden Hollow Cove C
 P2987                           J2380                           J2880                              1166.9472       8.0000       1.0000       0.0000        ;Maple Bench
 P2989                           J2386                           J182                                183.1239      12.0000       1.0000       0.0000       
 P299                            J440                            J442                                268.1136       8.0000       1.0000       0.0000       
 P2993                           J2384                           J2494                               570.5956       8.0000       1.0000       0.0000        ;Clegg Canyon A
 P2997                           J2384                           J2382                               295.2393       8.0000       1.0000       0.0000        ;Clegg Canyon A
 P301                            J442                            J444                                306.5700       8.0000       1.0000       0.0000       
 P3029                           J916                            J2412                               160.7253       6.0000       1.0000       0.0000        ;Garfield Estates
 P303                            J446                            J940                                360.3328      12.0000       1.0000       0.0000       
 P3033                           J2416                           J1958                               273.7137       8.0000       1.0000       0.0000        ;Whisper Rock C
 P3035                           J654                            J2418                               124.0886       8.0000       1.0000       0.0000        ;Emerald Corner
 P3037                           J564                            J2422                               174.0223       8.0000       1.0000       0.0000        ;Watkins
 P3039                           J2420                           J2422                               170.1588       8.0000       1.0000       0.0000        ;Watkins
 P3041                           J2424                           J1220                                32.7624       8.0000       1.0000       0.0000       
 P3043                           J2428                           J368                                219.8107       8.0000       1.0000       0.0000       
 P3049                           J2432                           J2434                               514.7597       8.0000       1.0000       0.0000        ;Maple Bench
 P305                            J450                            J452                                228.6850       6.0000       1.0000       0.0000       
 P3051                           J1416                           J2450                               689.6613      16.0000       1.0000       0.0000        ;Maple Bench
 P3053                           J2434                           J2380                               109.9843       8.0000       1.0000       0.0000        ;Maple Bench
 P3055                           PRV_Z3-Z2_BENCH_ND              J2620                                91.9632       8.0000       1.0000       0.0000        ;Connecting pipe
 P3057                           J2436                           J1714                              2328.6060      12.0000       1.0000       0.0000       
 P3059                           J2438                           J462                                778.1861       8.0000       1.0000       0.0000       
 P3061                           J2440                           J2432                               335.0301      16.0000       1.0000       0.0000        ;Maple Bench
 P3065                           J2442                           J2454                               558.4241       8.0000       1.0000       0.0000        ;Maple Bench
 P3067                           J2444                           J2442                                58.2309       8.0000       1.0000       0.0000        ;Maple Bench
 P307                            J454                            J440                                712.0787       8.0000       1.0000       0.0000       
 P3073                           J2450                           J2432                               952.0034      16.0000       1.0000       0.0000        ;Maple Bench
 P3077                           J2454                           J2434                               689.3147       8.0000       1.0000       0.0000        ;Maple Bench
 P3081                           J2460                           J1454                               847.1499      12.0000       0.4000       0.0000        ;Sunrise Ranch C
 P309                            J456                            J460                                251.9662       8.0000       1.0000       0.0000       
 P3097                           J1892                           J1804                               409.8557       8.0000       1.0000       0.0000        ;Lindley
 P31                             J32                             J38                                 656.0280       6.0000       1.0000       0.0000       
 P3103                           J2372                           J2752                               360.8519      16.0000       1.0000       0.0000        ;Mapleton Village bench line
 P3105                           J2478                           J2640                               736.1167      12.0000       1.0000       0.0000        ;Mapleton Village bench line
 P3107                           J2482                           J2368                               693.8410      12.0000       0.4000       0.0000        ;Hidden Hollow A
 P3109                           J2482                           J2480                               722.2167       8.0000       1.0000       0.0000        ;Hidden Hollow A
 P311                            J460                            J2438                               124.9628       8.0000       1.0000       0.0000       
 P3111                           J2444                           PRV_Z3-Z2_BENCH_NU                   94.8934       8.0000       1.0000       0.0000        ;Connecting pipe
 P3117                           J2476                           PRV_Z3-Z2_VILLAGE_NU                 43.8940      16.0000       1.0000       0.0000        ;Connecting pipe
 P3119                           PRV_Z3-Z2_VILLAGE_ND            J2478                                42.0186      16.0000       1.0000       0.0000        ;Connecting pipe
 P3121                           PRV_Z2-Z1_VILLAGE_ND            J2324                               108.1636      12.0000       1.0000       0.0000        ;Connecting pipe
 P3125                           J2486                           PRV_MAPLE-Z3_LOWERTANKS_NU           17.5291      12.0000       1.0000       0.0000        ;Connecting pipe
 P3127                           J2488                           J2500                                52.4543      12.0000       1.0000       0.0000       
 P3131                           J2492                           J2384                               720.1280       8.0000       1.0000       0.0000        ;Clegg Canyon
 P3137                           J2496                           J2488                                23.4390       8.0000       1.0000       0.0000        ;Clegg Canyon
 P3143                           J2498                           J1834                               801.8382      12.0000       1.0000       0.0000       
 P3145                           J2500                           PRV_400N-Z3_NU                       27.4005      12.0000       1.0000       0.0000        ;Connecting pipe
 P3147                           PRV_400N-Z3_ND                  J2498                                27.5276      12.0000       1.0000       0.0000        ;Connecting pipe
 P315                            J464                            J498                                  1.4883      12.0000       1.0000       0.0000       
 P3151                           J2494                           J2496                                32.7045       8.0000       1.0000       0.0000        ;Clegg Canyon
 P3157                           J918                            J2506                                55.2389       8.0000       1.0000       0.0000        ;Garfield Estates Lot 2
 P3159                           J2508                           J1588                               373.3045       8.0000       1.0000       0.0000        ;Mountain View Point
 P3163                           J1742                           J2234                              2022.0000      12.0000       1.0000       0.0000        ;Mapleton Heights Plat A B C
 P3165                           J2514                           J2248                               196.4912      12.0000       1.0000       0.0000        ;Mapleton Heights
 P3167                           J2514                           J2512                               142.9403       8.0000       1.0000       0.0000        ;Mapleton Heights Plat D
 P3169                           J2516                           PRV_Z3-Z2_EAGLECOURT_NU              23.4655       8.0000       1.0000       0.0000        ;Connecting pipe
 P317                            J470                            PRV_Z2-Z1_1600S_NU                  382.6770      12.0000       1.0000       0.0000        ;Connecting pipe
 P319                            J468                            J930                                346.9277      12.0000       1.0000       0.0000       
 P3197                           J2532                           J2536                               369.5543       8.0000       1.0000       0.0000        ;Mapleton Heights future
 P3203                           J2538                           J1752                                19.8678      12.0000       1.0000       0.0000        ;Mapleton Heights future
 P321                            J426                            J474                                245.5263       8.0000       1.0000       0.0000       
 P3213                           J2544                           J536                                492.5253      12.0000       1.0000       0.0000       
 P3217                           J2544                           J2542                                79.8569      12.0000       1.0000       0.0000        ;800 West existing
 P3227                           J2536                           J2538                                40.6384      12.0000       1.0000       0.0000        ;Mapleton Heights
 P323                            J474                            J478                                326.1642       8.0000       1.0000       0.0000       
 P3239                           J64                             J2552                               660.3020      12.0000       1.0000       0.0000        ;1200 East Wren Meadows install Jan 2023
 P3241                           J2552                           J66                                 676.3808      12.0000       1.0000       0.0000        ;1200 East Wren Meadows install Jan 2023
 P3245                           J2558                           J1216                               309.8595       8.0000       1.0000       0.0000       
 P3247                           J64                             J2554                               280.5682       8.0000       1.0000       0.0000        ;Wren Meadows upsize 1200 North pipe install Nov 2022
 P3249                           J2554                           J58                                 266.3771       8.0000       1.0000       0.0000        ;Wren Meadows upsize 1200 North pipe install Nov 2022
 P325                            J478                            J480                                419.2840       8.0000       1.0000       0.0000       
 P3261                           J2568                           J1004                               542.3967       8.0000       1.0000       0.0000        ;800 W booster
 P3263                           J2572                           J314                                149.0866       8.0000       1.0000       0.0000        ;800 W booster
 P3265                           J2568                           J2570                                56.9070       8.0000       1.0000       0.0000        ;Future Whiting Homestead
 P3267                           J2572                           J2574                                75.9699       8.0000       1.0000       0.0000        ;Whiting Homestead
 P3269                           J2576                           J2476                               400.1715      16.0000       1.0000       0.0000        ;800 W booster
 P327                            J476                            J482                                301.5299       8.0000       1.0000       0.0000       
 P3271                           J2578                           J2576                               221.5333      16.0000       1.0000       0.0000        ;Hidden Hollow Cove Plat E
 P3275                           J2582                           J2756                               414.6005      12.0000       1.0000       0.0000        ;Hidden Hollow Cove D
 P329                            J484                            J486                                223.1658       8.0000       1.0000       0.0000       
 P33                             J32                             J40                                 499.1830       8.0000       1.0000       0.0000       
 P3307                           J2592                           J2582                                15.4927      12.0000       1.0000       0.0000        ;Hidden Hollow Cove
 P331                            J486                            J490                                143.0312       8.0000       1.0000       0.0000       
 P3311                           J2596                           J924                                797.0849       8.0000       1.0000       0.0000        ;Perry Hollow
 P3325                           J2616                           J298                                842.0041       8.0000       1.0000       0.0000       
 P333                            J488                            J490                                667.2059       8.0000       1.0000       0.0000       
 P3333                           J2618                           J2104                               358.8015       8.0000       1.0000       0.0000        ;Preserve E
 P3335                           J2620                           J202                               1270.4730       6.0000       1.0000       0.0000       
 P3337                           J2622                           J218                                735.5184       8.0000       1.0000       0.0000       
 P3339                           J2624                           J974                                218.7967      12.0000       1.0000       0.0000        ;Hjorth
 P3341                           J2626                           J940                                859.9831       6.0000       1.0000       0.0000        ;Hjorth
 P3343                           J2626                           J2624                               888.0740       8.0000       1.0000       0.0000        ;Hjorth
 P3347                           J2630                           J1700                                23.7686      12.0000       1.0000       0.0000        ;Hjorth
 P3349                           J2630                           J2628                              1350.8731      12.0000       1.0000       0.0000        ;Clegg Canyon A
 P335                            J492                            J488                                309.4836       4.0000       1.0000       0.0000       
 P3353                           J2636                           J1650                               362.1824       8.0000       1.0000       0.0000        ;Clegg Canyon A
 P3365                           J2640                           J2754                               374.1141      12.0000       1.0000       0.0000        ;Harmony Ridge
 P337                            J472                            J496                                149.6967       8.0000       1.0000       0.0000       
 P339                            J472                            J494                                252.8544       4.0000       1.0000       0.0000       
 P341                            J498                            J500                                399.8324       8.0000       1.0000       0.0000       
 P343                            J502                            J504                                326.4041       8.0000       1.0000       0.0000       
 P345                            J506                            J510                                711.4768      12.0000       1.0000       0.0000       
 P347                            J510                            J512                                605.6694       8.0000       1.0000       0.0000       
 P349                            J514                            J516                               1270.5169       6.0000       1.0000       0.0000       
 P35                             J40                             J102                                  9.9666       8.0000       1.0000       0.0000       
 P351                            J518                            J526                                333.3931      12.0000       1.0000       0.0000       
 P3519                           J2752                           J2578                               128.1626      16.0000       1.0000       0.0000        ;Mapleton Village bench line
 P3521                           J2754                           J2326                               272.6737      12.0000       1.0000       0.0000        ;Harmony Ridge
 P3523                           J2756                           J2372                               416.3916      12.0000       1.0000       0.0000        ;Hidden Hollow Cove D
 P353                            J522                            J518                                 67.3614      12.0000       1.0000       0.0000       
 P355                            J524                            J1786                               724.3907       8.0000       1.0000       0.0000       
 P357                            J528                            J538                                 37.2475      12.0000       1.0000       0.0000       
 P3581                           J2806                           J494                               1045.8480       4.0000       1.0000       0.0000       
 P3583                           J2810                           J532                                407.9455       8.0000       1.0000       0.0000        ;Hidden Hollow Cove dummy pipe
 P3585                           J2812                           J1754                                 7.3458      12.0000       1.0000       0.0000        ;Hidden Hollow Cove dummy pipe
 P3587                           J2808                           J2812                                16.8503      12.0000       1.0000       0.0000       
 P3589                           J2492                           J2814                                93.4016       8.0000       1.0000       0.0000        ;Clegg Canyon
 P359                            J528                            J2542                               130.7992      12.0000       1.0000       0.0000       
 P3601                           J2818                           J2816                               117.9151       8.0000       1.0000       0.0000        ;Quiet Meadow
 P361                            T4_WESTWOOD                     J532                                598.1443      12.0000       1.0000       0.0000       
 P3613                           J26                             J2818                               702.3642       8.0000       1.0000       0.0000        ;Quiet Meadows
 P3615                           J2816                           J2622                               409.0025       8.0000       1.0000       0.0000        ;Quiet Meadows
 P3617                           J2818                           J2820                               164.7699       1.0000       1.0000       0.0000        ;Quiet Meadows
 P363                            J536                            J2810                              1055.7275       8.0000       1.0000       0.0000       
 P365                            J538                            J586                                634.0936       8.0000       1.0000       0.0000       
 P3651                           J2846                           J358                               1457.1675       8.0000       1.0000       0.0000        ;Buildout Model
 P3653                           J2852                           J344                                363.3764      12.0000       1.0000       0.0000        ;Buildout Model
 P367                            J530                            J546                                530.4103      12.0000       1.0000       0.0000       
 P3673                           J2860                           J1238                               348.7455      12.0000       1.0000       0.0000        ;Buildout Model
 P3677                           J2862                           J986                                275.9192      12.0000       1.0000       0.0000        ;Buildout Model
 P3683                           J2868                           PRV_Z2-Z1_SOUTHMAIN_NU              528.5753      12.0000       0.4000       0.0000        ;Connecting pipe
 P369                            J1518                           PRV_Z2-Z1_LOWERTWINHOLLOW_NU        158.7694       8.0000       1.0000       0.0000        ;Connecting pipe
 P3693                           J2878                           J880                               1030.8191       8.0000       1.0000       0.0000       
 P3695                           J2880                           J1416                                40.1556       8.0000       1.0000       0.0000        ;Maple Bench
 P37                             J42                             J44                                 731.8359       8.0000       1.0000       0.0000       
 P371                            J546                            J1686                               637.5856      12.0000       1.0000       0.0000       
 P3719                           J2886                           J2888                               575.3204       6.0000       1.0000       0.0000       
 P3721                           J2888                           J2890                               601.9521       6.0000       1.0000       0.0000       
 P3723                           J2890                           J50                                 182.3242       6.0000       1.0000       0.0000       
 P3725                           J2892                           J48                                 397.2020       6.0000       1.0000       0.0000       
 P3727                           J2894                           J42                                 252.3443       8.0000       1.0000       0.0000       
 P373                            J550                            J2086                               770.9097       8.0000       1.0000       0.0000       
 P375                            J554                            J2090                               849.3876       8.0000       1.0000       0.0000       
 P3751                           J2898                           J2900                               672.1440       6.0000       1.0000       0.0000       
 P3753                           J2900                           J1690                               612.3314       6.0000       1.0000       0.0000       
 P3765                           J2902                           J2904                                74.3774       8.0000       1.0000       0.0000       
 P3767                           J2904                           J1686                               531.6535       8.0000       1.0000       0.0000       
 P3769                           J538                            PRV_Z2-Z1_800W_2_NU                  45.7345      12.0000       1.0000       0.0000        ;Connecting pipe
 P377                            J558                            J560                               1297.6512       6.0000       1.0000       0.0000       
 P379                            J562                            J564                                641.8851       8.0000       1.0000       0.0000       
 P381                            J566                            J560                                660.1628       8.0000       1.0000       0.0000       
 P383                            J570                            J1776                               169.9263      12.0000       1.0000       0.0000       
 P385                            J574                            J576                                358.8565       8.0000       1.0000       0.0000       
 P387                            J578                            J580                                969.9070       8.0000       1.0000       0.0000       
 P389                            J542                            J594                               1609.0873       8.0000       1.0000       0.0000       
 P39                             J44                             J46                                 531.4095       8.0000       1.0000       0.0000       
 P391                            J582                            J616                                418.2171       8.0000       1.0000       0.0000       
 P393                            J586                            J2902                               226.4516       8.0000       1.0000       0.0000       
 P395                            J590                            J1688                               468.3641       8.0000       1.0000       0.0000       
 P397                            J594                            J614                                888.0767       8.0000       1.0000       0.0000       
 P399                            J596                            J598                                410.9069       8.0000       1.0000       0.0000       
 P401                            J598                            J604                                405.2211       8.0000       1.0000       0.0000       
 P403                            J600                            J602                                233.3251       8.0000       1.0000       0.0000       
 P405                            J604                            J608                                480.1054       8.0000       1.0000       0.0000       
 P407                            J608                            J610                                267.6273       8.0000       1.0000       0.0000       
 P409                            J606                            J612                                860.5919       8.0000       1.0000       0.0000       
 P41                             J38                             J2892                               373.4724       6.0000       1.0000       0.0000       
 P411                            J614                            J622                                647.5339       8.0000       1.0000       0.0000       
 P413                            J618                            J620                                126.1754       8.0000       1.0000       0.0000       
 P415                            J622                            J624                                125.6318       8.0000       1.0000       0.0000       
 P417                            J584                            J1320                               984.2766      12.0000       1.0000       0.0000       
 P419                            J626                            J612                                  2.8467      12.0000       1.0000       0.0000       
 P421                            J584                            J694                                  2.2258       8.0000       1.0000       0.0000       
 P423                            J632                            J634                               1268.7479       8.0000       1.0000       0.0000       
 P425                            J636                            J634                                185.1133       8.0000       1.0000       0.0000       
 P427                            J508                            J550                               1748.9259       8.0000       1.0000       0.0000       
 P429                            J642                            J644                                 32.3481       8.0000       1.0000       0.0000       
 P43                             J48                             J2886                               197.3203       6.0000       1.0000       0.0000       
 P431                            J646                            J644                                  2.2908      12.0000       1.0000       0.0000       
 P433                            J650                            J648                                  3.6242      12.0000       1.0000       0.0000       
 P435                            J646                            J664                               1272.6697      12.0000       1.0000       0.0000       
 P437                            J654                            J1566                               900.5463      12.0000       1.0000       0.0000       
 P439                            J658                            J660                               1467.5025       8.0000       1.0000       0.0000       
 P441                            J662                            J658                                 33.1783       8.0000       1.0000       0.0000       
 P443                            J662                            J666                                176.2408       8.0000       1.0000       0.0000       
 P445                            J668                            J674                                 27.5334       8.0000       1.0000       0.0000       
 P447                            J672                            J674                                  7.4023       8.0000       1.0000       0.0000       
 P449                            J676                            J680                                 67.4584       8.0000       1.0000       0.0000       
 P45                             J52                             J54                                 253.0262       8.0000       1.0000       0.0000       
 P451                            J680                            J682                               1141.3390       8.0000       1.0000       0.0000       
 P453                            J640                            J1426                               619.0757       8.0000       1.0000       0.0000       
 P455                            J686                            J650                                708.3490       8.0000       1.0000       0.0000       
 P457                            J690                            J2860                              1321.3947      12.0000       1.0000       0.0000       
 P459                            J694                            J2070                               468.0288       8.0000       1.0000       0.0000       
 P461                            J698                            J700                               1488.8702       8.0000       1.0000       0.0000       
 P463                            J702                            J700                                 41.0145       8.0000       1.0000       0.0000       
 P465                            J706                            J708                                254.7695       6.0000       1.0000       0.0000       
 P467                            J710                            J712                                440.8407       8.0000       1.0000       0.0000       
 P469                            J714                            J712                                295.0613       8.0000       1.0000       0.0000       
 P47                             J56                             J58                                 686.4312       8.0000       1.0000       0.0000       
 P471                            J714                            J716                                704.3245       8.0000       1.0000       0.0000       
 P473                            J720                            J724                                637.2829       8.0000       1.0000       0.0000       
 P475                            J724                            J726                                789.3240       8.0000       1.0000       0.0000       
 P477                            J722                            J728                                363.5063       8.0000       1.0000       0.0000       
 P479                            J730                            J1780                               894.0756       8.0000       1.0000       0.0000       
 P481                            J734                            J740                               1659.7266      12.0000       1.0000       0.0000       
 P483                            J696                            J704                                 17.2690       8.0000       1.0000       0.0000       
 P485                            J736                            J340                                 37.5251      12.0000       1.0000       0.0000       
 P487                            J740                            J988                                188.9638       8.0000       1.0000       0.0000       
 P489                            J744                            J756                                532.9552       8.0000       1.0000       0.0000       
 P491                            J746                            J748                                798.8320       8.0000       1.0000       0.0000       
 P493                            J328                            J748                                  8.1146       8.0000       1.0000       0.0000       
 P495                            J752                            J754                                342.1420       6.0000       1.0000       0.0000       
 P497                            J756                            J762                                264.3093       8.0000       1.0000       0.0000       
 P499                            J760                            J762                                318.5339       6.0000       1.0000       0.0000       
 P501                            J764                            J1678                               458.8188       8.0000       1.0000       0.0000       
 P505                            J768                            J776                                429.3108       8.0000       1.0000       0.0000       
 P507                            J772                            J774                                251.4019       8.0000       1.0000       0.0000       
 P511                            J1658                           J780                                491.2464       8.0000       1.0000       0.0000       
 P513                            J778                            J682                                277.3325       8.0000       1.0000       0.0000       
 P515                            J782                            J774                                384.3161       8.0000       1.0000       0.0000       
 P517                            J786                            J788                                 82.9777       8.0000       1.0000       0.0000       
 P519                            J790                            J792                                463.4198       8.0000       1.0000       0.0000       
 P521                            J794                            J1680                               127.8087       8.0000       1.0000       0.0000       
 P523                            J798                            J796                                699.5042       8.0000       1.0000       0.0000       
 P525                            J802                            J804                                379.9889      12.0000       1.0000       0.0000       
 P527                            J804                            J834                                  1.6259      12.0000       1.0000       0.0000       
 P529                            J806                            J808                                166.5829      12.0000       1.0000       0.0000       
 P541                            J824                            J828                                137.1828      12.0000       1.0000       0.0000       
 P543                            J830                            J844                                207.4950       8.0000       1.0000       0.0000       
 P547                            J836                            J1550                                 1.3510       8.0000       1.0000       0.0000       
 P549                            J838                            J832                                  1.3319       8.0000       1.0000       0.0000       
 P55                             J68                             J76                                 200.7262       6.0000       1.0000       0.0000       
 P551                            J840                            J1682                               396.0104       8.0000       1.0000       0.0000       
 P553                            J842                            J1684                               484.8893       8.0000       1.0000       0.0000       
 P555                            J844                            J846                                452.3457       8.0000       1.0000       0.0000       
 P557                            J848                            J688                                 61.5060       8.0000       1.0000       0.0000       
 P559                            J852                            J826                                178.4727       8.0000       1.0000       0.0000       
 P561                            J854                            J1974                               729.5860       8.0000       1.0000       0.0000       
 P563                            J856                            J858                                101.7564       6.0000       1.0000       0.0000       
 P565                            J856                            J1378                               476.3076       6.0000       1.0000       0.0000       
 P567                            J860                            J864                                293.5608       8.0000       1.0000       0.0000       
 P569                            J862                            J1636                               169.1052       8.0000       1.0000       0.0000       
 P57                             J72                             J390                                 17.2819       8.0000       1.0000       0.0000       
 P571                            J864                            J866                               1018.0533       8.0000       1.0000       0.0000       
 P573                            J866                            J870                               1124.5714       8.0000       1.0000       0.0000       
 P575                            J870                            J852                                650.3129       8.0000       1.0000       0.0000       
 P577                            J872                            J874                                773.9436       8.0000       1.0000       0.0000       
 P579                            J876                            J872                                372.8457       6.0000       1.0000       0.0000       
 P581                            J880                            J882                                305.8326       8.0000       1.0000       0.0000       
 P583                            J884                            J886                                677.3004       8.0000       1.0000       0.0000       
 P585                            J888                            J890                                785.7746       8.0000       1.0000       0.0000       
 P587                            J474                            J892                                608.2973       8.0000       1.0000       0.0000       
 P589                            J892                            J968                                999.9587       8.0000       1.0000       0.0000       
 P59                             J76                             J78                                 391.5615       8.0000       1.0000       0.0000       
 P591                            J894                            J966                                357.5226       8.0000       1.0000       0.0000       
 P593                            J496                            J896                                532.8699       8.0000       1.0000       0.0000       
 P595                            J898                            J906                                 53.6538       8.0000       1.0000       0.0000       
 P597                            J902                            J904                                 32.7190       8.0000       1.0000       0.0000       
 P599                            J906                            J902                                658.5267       8.0000       1.0000       0.0000       
 P601                            J910                            J912                                400.0155       6.0000       1.0000       0.0000       
 P603                            J914                            J916                                411.1479       6.0000       1.0000       0.0000       
 P605                            J918                            J920                               1847.9739       8.0000       1.0000       0.0000       
 P607                            J922                            J2596                              2142.3320       8.0000       1.0000       0.0000       
 P609                            J492                            J926                                238.3442       4.0000       1.0000       0.0000       
 P61                             J78                             J80                                 695.7128       8.0000       1.0000       0.0000       
 P611                            J492                            J928                                402.1318       4.0000       1.0000       0.0000       
 P613                            J930                            J932                                469.1738       8.0000       1.0000       0.0000       
 P615                            J934                            J936                                390.3399       8.0000       1.0000       0.0000       
 P617                            J938                            J2626                                54.7970       6.0000       1.0000       0.0000       
 P619                            J942                            J482                                 86.4909       6.0000       1.0000       0.0000       
 P621                            J944                            J946                                246.6335       8.0000       1.0000       0.0000       
 P623                            J948                            J950                               1660.2710       8.0000       1.0000       0.0000       
 P625                            J952                            J954                                610.5453       8.0000       1.0000       0.0000       
 P627                            J954                            J948                                 54.5164       8.0000       1.0000       0.0000       
 P629                            J956                            J958                                636.1570       8.0000       1.0000       0.0000       
 P63                             J82                             J86                                 333.6427       8.0000       1.0000       0.0000       
 P631                            J960                            J950                               1306.8981       8.0000       1.0000       0.0000       
 P633                            J964                            J2898                               678.1059       6.0000       1.0000       0.0000       
 P635                            J968                            J970                                179.7637       4.0000       1.0000       0.0000       
 P637                            J972                            J1726                               173.5371       8.0000       1.0000       0.0000       
 P639                            J628                            J2862                               602.9584      12.0000       1.0000       0.0000       
 P641                            J976                            J978                                103.3700       8.0000       1.0000       0.0000       
 P643                            J980                            J982                                256.1961       6.0000       1.0000       0.0000       
 P645                            J984                            J986                                 91.4438       8.0000       1.0000       0.0000       
 P647                            J988                            J990                                160.5462       8.0000       1.0000       0.0000       
 P649                            J992                            J996                                276.6426       8.0000       1.0000       0.0000       
 P65                             J86                             J88                                 595.6421       8.0000       1.0000       0.0000       
 P651                            J996                            J998                                710.6642       8.0000       1.0000       0.0000       
 P653                            J742                            J1000                               656.6533       8.0000       1.0000       0.0000       
 P655                            J1002                           J1078                                 3.2260       8.0000       1.0000       0.0000       
 P657                            J1002                           J1334                               317.4984       8.0000       1.0000       0.0000       
 P659                            J1006                           J1010                               366.3380       8.0000       1.0000       0.0000       
 P661                            J1010                           J1012                               224.7705       8.0000       1.0000       0.0000       
 P663                            J1014                           J122                                294.5844      12.0000       1.0000       0.0000       
 P665                            J1014                           J140                                  2.1785      12.0000       1.0000       0.0000       
 P667                            J1018                           J1512                               221.6568      12.0000       1.0000       0.0000       
 P669                            J1008                           J1876                               232.3254       8.0000       1.0000       0.0000       
 P67                             J88                             J1674                               350.4663       8.0000       1.0000       0.0000       
 P671                            J1016                           J1056                               339.6307      12.0000       1.0000       0.0000       
 P673                            J1022                           J1026                               414.6466       6.0000       1.0000       0.0000       
 P675                            J1026                           J1028                               426.0000       8.0000       1.0000       0.0000       
 P677                            J1030                           J1782                               217.0011       8.0000       1.0000       0.0000       
 P679                            J1034                           J1042                               688.9702       8.0000       1.0000       0.0000       
 P681                            J1038                           J1040                               657.9571       8.0000       1.0000       0.0000       
 P683                            J1042                           J1038                               339.0217       8.0000       1.0000       0.0000       
 P685                            J1046                           J1044                               683.3215       8.0000       1.0000       0.0000       
 P687                            J1050                           J2022                               449.1628       6.0000       1.0000       0.0000       
 P689                            J1054                           J1068                               599.6205       8.0000       1.0000       0.0000       
 P69                             J90                             J92                                 269.9150       8.0000       1.0000       0.0000       
 P691                            J1058                           J1882                               623.4011       8.0000       1.0000       0.0000       
 P693                            J1062                           J1064                               527.2886       8.0000       1.0000       0.0000       
 P695                            J1066                           J1068                               525.9927       8.0000       1.0000       0.0000       
 P697                            J1054                           J1076                                 3.4589       8.0000       1.0000       0.0000       
 P699                            J1070                           J1102                                32.2251       8.0000       1.0000       0.0000       
 P703                            J1078                           J1100                               332.7695       8.0000       1.0000       0.0000       
 P705                            J1080                           J1094                                45.1102       8.0000       1.0000       0.0000       
 P707                            J314                            J1004                                41.4433       8.0000       1.0000       0.0000       
 P709                            J1086                           J1088                               409.9547       8.0000       1.0000       0.0000       
 P71                             J94                             J100                                384.4169       8.0000       1.0000       0.0000       
 P711                            J1090                           J1092                                45.0365       8.0000       1.0000       0.0000       
 P713                            J1094                           J1096                               278.9094       6.0000       1.0000       0.0000       
 P715                            J1096                           J1660                                53.8394       8.0000       1.0000       0.0000       
 P717                            J1100                           J1898                               435.6745       8.0000       1.0000       0.0000       
 P719                            J1104                           J1662                               418.3167       8.0000       1.0000       0.0000       
 P721                            J1108                           J1662                               853.5968       8.0000       1.0000       0.0000       
 P723                            J1112                           J1148                               163.4910       8.0000       1.0000       0.0000       
 P725                            J1106                           J1664                                42.5809       8.0000       1.0000       0.0000       
 P727                            J1118                           J1120                               357.4509       8.0000       1.0000       0.0000       
 P729                            J1118                           J1116                                77.3757       8.0000       1.0000       0.0000       
 P73                             J98                             J100                                225.9316       8.0000       1.0000       0.0000       
 P731                            J1122                           J1124                               314.9637       8.0000       1.0000       0.0000       
 P733                            J1126                           J1110                               343.6518       8.0000       1.0000       0.0000       
 P735                            J1130                           J1132                               263.0067       8.0000       1.0000       0.0000       
 P737                            J1134                           J1136                              1300.1904       6.0000       1.0000       0.0000       
 P739                            J1138                           J1666                               264.1457       8.0000       1.0000       0.0000       
 P741                            J1142                           J1144                               836.4255       8.0000       1.0000       0.0000       
 P743                            J1142                           J1140                               118.6902       8.0000       1.0000       0.0000       
 P745                            J1148                           J1150                               644.1372       8.0000       1.0000       0.0000       
 P747                            J1112                           J1154                               315.3307       8.0000       1.0000       0.0000       
 P749                            J1154                           J1156                               346.8752       8.0000       1.0000       0.0000       
 P75                             J102                            J94                                 629.7030       6.0000       1.0000       0.0000       
 P751                            J1146                           J1158                               510.7716       8.0000       1.0000       0.0000       
 P753                            J1158                           J1162                               345.2012       8.0000       1.0000       0.0000       
 P755                            J1162                           J1164                               831.4360       8.0000       1.0000       0.0000       
 P757                            J292                            J884                                369.3898       6.0000       1.0000       0.0000       
 P759                            J878                            J1668                                33.5922       8.0000       1.0000       0.0000       
 P761                            J1166                           J1170                               637.2924       6.0000       1.0000       0.0000       
 P763                            J1170                           J1176                               538.6847       8.0000       1.0000       0.0000       
 P765                            J1174                           J1176                               159.4731       8.0000       1.0000       0.0000       
 P767                            J1174                           J1178                               496.0290       8.0000       1.0000       0.0000       
 P769                            J1180                           J1182                               324.0666       8.0000       1.0000       0.0000       
 P77                             J106                            J110                                116.4093       8.0000       1.0000       0.0000       
 P771                            J1144                           J1120                                 3.6173       8.0000       1.0000       0.0000       
 P773                            J1024                           J1052                               821.8089       6.0000       1.0000       0.0000       
 P775                            J1186                           J1192                                13.8468       8.0000       1.0000       0.0000       
 P777                            J1186                           J1190                               196.5827       8.0000       1.0000       0.0000       
 P779                            J1192                           J1194                               377.3001       8.0000       1.0000       0.0000       
 P781                            J350                            J1196                               601.6661       8.0000       1.0000       0.0000       
 P783                            J1198                           J1202                               317.7158       6.0000       1.0000       0.0000       
 P785                            J1202                           J1204                               293.9385       8.0000       1.0000       0.0000       
 P787                            J1206                           J1842                               571.2281       8.0000       1.0000       0.0000       
 P789                            J1210                           J330                                721.5656       6.0000       1.0000       0.0000       
 P79                             J108                            J110                               1171.3846       8.0000       1.0000       0.0000       
 P791                            J1212                           J1214                               746.5913       8.0000       1.0000       0.0000       
 P793                            J1214                           J1216                               342.2566       8.0000       1.0000       0.0000       
 P795                            J1218                           J1220                               772.6846       8.0000       1.0000       0.0000       
 P797                            J1222                           J1594                               392.4313      12.0000       1.0000       0.0000       
 P799                            J1224                           J1200                                 3.5456      12.0000       1.0000       0.0000       
 P801                            J1226                           J1230                               163.9671       8.0000       1.0000       0.0000       
 P803                            J1230                           J1232                               258.1705       8.0000       1.0000       0.0000       
 P807                            J1234                           J1236                               423.3721       8.0000       1.0000       0.0000       
 P809                            J1238                           J1242                               225.5138       8.0000       1.0000       0.0000       
 P81                             J112                            J108                                  2.3733       8.0000       1.0000       0.0000       
 P811                            J1240                           J1242                               233.7623       8.0000       1.0000       0.0000       
 P813                            J1244                           J652                                 55.2370      12.0000       1.0000       0.0000       
 P815                            J1248                           J1250                                27.7413      12.0000       1.0000       0.0000       
 P817                            J1252                           J1254                                36.1388      12.0000       1.0000       0.0000       
 P819                            J1256                           J1258                                33.1481      12.0000       1.0000       0.0000       
 P821                            J1260                           J1262                                33.9293      12.0000       1.0000       0.0000       
 P823                            J1264                           J1266                               682.9254       8.0000       1.0000       0.0000       
 P825                            J1266                           J1268                               846.3105       8.0000       1.0000       0.0000       
 P827                            J1270                           J1272                               106.5126      12.0000       1.0000       0.0000       
 P829                            J1272                           J1274                               833.1731      18.0000       1.0000       0.0000       
 P83                             J116                            J44                                 616.0817       8.0000       1.0000       0.0000       
 P831                            J1274                           J1278                               588.2903      18.0000       1.0000       0.0000       
 P835                            J1276                           J1614                               304.3741      18.0000       1.0000       0.0000       
 P837                            J1282                           J1284                               372.6948      18.0000       1.0000       0.0000       
 P839                            J1284                           J1286                               265.5430      18.0000       1.0000       0.0000       
 P841                            J1286                           J1288                               432.4190      18.0000       1.0000       0.0000       
 P843                            J1288                           J1290                               755.6219      18.0000       1.0000       0.0000       
 P845                            J1290                           J1292                               985.8239      18.0000       1.0000       0.0000       
 P847                            J1292                           J1294                               692.2028      18.0000       1.0000       0.0000       
 P849                            J1294                           J1296                               296.5060      18.0000       1.0000       0.0000       
 P85                             J106                            J114                                  2.6625       8.0000       1.0000       0.0000       
 P851                            J1296                           J1298                               616.1979      18.0000       1.0000       0.0000       
 P853                            J1298                           J1300                               453.1810      18.0000       1.0000       0.0000       
 P855                            J1300                           J1302                               308.2321      18.0000       1.0000       0.0000       
 P857                            J1302                           J1304                              1123.1477      18.0000       1.0000       0.0000       
 P859                            J1304                           J1310                               237.6388      18.0000       1.0000       0.0000       
 P861                            J1694                           PRV_Z3-Z2_1600S_NU                    5.1505      12.0000       1.0000       0.0000        ;Connecting pipe
 P863                            J1312                           J1696                               536.9431      12.0000       1.0000       0.0000       
 P865                            J1314                           J1316                               355.7946       8.0000       1.0000       0.0000       
 P867                            J1316                           J1318                               303.9415       8.0000       1.0000       0.0000       
 P869                            J1316                           J1320                              1316.7358       8.0000       1.0000       0.0000       
 P87                             J120                            J132                                 13.9950       8.0000       1.0000       0.0000       
 P871                            J1322                           J1324                               987.9126       8.0000       1.0000       0.0000       
 P873                            J1326                           J1328                               604.6355       8.0000       1.0000       0.0000       
 P875                            J1330                           J1328                               279.3376       8.0000       1.0000       0.0000       
 P877                            J1332                           J1334                               661.0072       8.0000       0.4000       0.0000       
 P879                            J1336                           J1332                               189.7711       8.0000       0.4000       0.0000       
 P881                            J1340                           J1342                               470.0128       8.0000       0.4000       0.0000       
 P883                            J1344                           J1346                               461.9674       8.0000       0.4000       0.0000       
 P885                            J684                            J1794                               300.2005       8.0000       1.0000       0.0000       
 P887                            J1350                           J1732                               678.5570       6.0000       1.0000       0.0000       
 P889                            J1350                           J1348                               682.6303       6.0000       1.0000       0.0000       
 P89                             J120                            J124                                327.3334       8.0000       1.0000       0.0000       
 P891                            J1352                           J1962                               111.8623       8.0000       1.0000       0.0000        ;Fox Hollow
 P893                            J1356                           J1364                                49.9100       8.0000       1.0000       0.0000       
 P895                            J1358                           J1360                               208.6305       8.0000       1.0000       0.0000        ;Fox Hollow
 P897                            J1348                           J1352                               514.1225       8.0000       1.0000       0.0000        ;Fox Hollow
 P899                            J1362                           J1364                               256.3583       8.0000       1.0000       0.0000        ;Fox Hollow
 P901                            J1366                           J1368                               174.4624       8.0000       0.4000       0.0000       
 P903                            J1366                           J1372                               476.2458       8.0000       0.4000       0.0000       
 P907                            J1370                           J1376                               224.9607       8.0000       0.4000       0.0000       
 P909                            J1366                           J1378                               226.5152       8.0000       0.4000       0.0000       
 P91                             J124                            J126                                 30.9031       8.0000       1.0000       0.0000       
 P911                            J1380                           J1382                               299.7923       8.0000       0.4000       0.0000        ;Holly Farm Estates A
 P913                            J1382                           J1904                               161.4031       8.0000       0.4000       0.0000        ;Holly Farm Estates A
 P915                            J1386                           J1388                                72.9173       8.0000       0.4000       0.0000       
 P917                            J1390                           J1388                                 3.7638       8.0000       0.4000       0.0000       
 P919                            J1392                           J1394                               245.8164       8.0000       0.4000       0.0000       
 P921                            J1394                           J1396                               208.1993       8.0000       0.4000       0.0000       
 P923                            J1398                           J1400                               179.7106       8.0000       0.4000       0.0000        ;Northridge
 P925                            J1400                           J1402                               294.3641       8.0000       0.4000       0.0000        ;Northridge
 P927                            J1402                           J1404                               148.7435       8.0000       0.4000       0.0000        ;Northridge
 P929                            J1406                           J1784                               399.1175       8.0000       0.4000       0.0000        ;Northridge
 P93                             J112                            J128                                123.0625       8.0000       1.0000       0.0000       
 P931                            J1408                           J1812                               414.1938       6.0000       1.0000       0.0000       
 P933                            J1408                           J1412                                23.1135       8.0000       0.4000       0.0000       
 P935                            J1412                           J1820                               220.7045       8.0000       0.4000       0.0000        ;Dalllins Subdivision A
 P937                            J1416                           J1418                               364.4198      16.0000       1.0000       0.0000        ;Maple Bench
 P939                            J1418                           J1422                               221.7293      16.0000       1.0000       0.0000       
 P941                            J1422                           J1424                               255.1973      16.0000       1.0000       0.0000       
 P943                            J176                            J1424                               299.5430      16.0000       1.0000       0.0000       
 P945                            J1426                           J1432                               169.0225       8.0000       0.4000       0.0000        ;Maple Grove Middle School
 P947                            J1428                           J1438                               204.7152       8.0000       0.4000       0.0000        ;Maple Grove Middle School
 P949                            J1432                           J1434                               276.0032       8.0000       0.4000       0.0000        ;Maple Grove Middle School
 P95                             J130                            J132                                338.9141       8.0000       1.0000       0.0000       
 P951                            J1436                           J1438                                78.0870       8.0000       0.4000       0.0000        ;Maple Grove Middle School
 P953                            J1440                           J1538                                 1.1070       8.0000       0.4000       0.0000       
 P955                            J1442                           J1444                               398.9315       8.0000       0.4000       0.0000        ;Maple Grove E
 P957                            J1444                           J1446                               133.2019       8.0000       0.4000       0.0000        ;Maple Grove E
 P959                            J1446                           J1448                               191.3704       8.0000       0.4000       0.0000        ;Maple Grove E
 P961                            J1450                           J1456                               734.7835      12.0000       0.4000       0.0000        ;Sunrise Ranch C
 P963                            J1452                           J2460                               211.3496      12.0000       0.4000       0.0000        ;Sunrise Ranch C
 P965                            J1456                           J1458                               107.5214       8.0000       0.4000       0.0000        ;Sunrise Ranch R
 P969                            J1464                           J2094                               267.0853       8.0000       0.4000       0.0000        ;Maple Vale A
 P97                             J134                            J136                                328.4251       8.0000       1.0000       0.0000       
 P971                            J1468                           J2332                               178.1189      12.0000       0.4000       0.0000        ;Twin Hollow B
 P973                            J1470                           J1472                                59.1018       8.0000       0.4000       0.0000       
 P975                            J1474                           PRV_Z3-Z2_HIDDENNORTH_NU             34.1052      12.0000       0.4000       0.0000        ;Connecting pipe
 P977                            J1478                           J1976                               116.4970       8.0000       1.0000       0.0000        ;Maple Grove Middle School Lots
 P979                            J1478                           J1480                               174.4523       8.0000       1.0000       0.0000        ;Maple Grove Middle School Lots
 P981                            J1480                           J1984                               330.7259       8.0000       1.0000       0.0000       
 P983                            J1484                           J1480                               127.4760       8.0000       1.0000       0.0000       
 P985                            J1484                           J1486                               203.0525       8.0000       1.0000       0.0000       
 P987                            J654                            J1486                               967.6703       8.0000       0.4000       0.0000       
 P989                            J1490                           J1738                              2867.9664      16.0000       1.0000       0.0000       
 P99                             J82                             J144                                 34.0043       6.0000       1.0000       0.0000       
 P991                            J1492                           J2030                               183.3626       8.0000       1.0000       0.0000        ;Copperhead Estates
 P993                            J1494                           J1496                               232.3770       8.0000       1.0000       0.0000        ;Copperhead Estates
 P995                            J1494                           J1498                               303.9043       8.0000       1.0000       0.0000        ;Copperhead Estates
 P997                            J736                            J1946                               670.5699       8.0000       1.0000       0.0000       
 P999                            J1340                           J1922                               377.3562       8.0000       1.0000       0.0000        ;Walter Farms

[PUMPS]
 PMP_BOOSTER1                    PMP_BOOSTER1_NU                 PMP_BOOSTER1_ND                  HEAD BOOSTER2_5X6-11HD_1STAGE  ;SEE RULE-BASED CONTROLS
 PMP_BOOSTER2                    PMP_BOOSTER2_NU                 PMP_BOOSTER2_ND                  HEAD BOOSTER2_5X6-11HD_1STAGE  ;backup to PMP_Booster1, leave closed for now
 PMP_CARNESECCA                  PMP_CARNESECCA_NU               PMP_CARNESECCA_ND                HEAD CARNESECCA_SCADA  ;Carnesecca well
 PMP_CROWD                       PMP_CROWD_NU                    PMP_CROWD_ND                     HEAD CROWDCANYON_PUMPTEST  ;Crowd Canyon well
 PMP_SEAL                        PMP_SEAL_NU                     PMP_SEAL_ND                      HEAD SEAL_14LC_5STAGE  ;Seal Well
 PMP_WESTWOOD                    PMP_WESTWOOD_NU                 PMP_WESTWOOD_ND                  HEAD WESTWOOD_SCADA  ;Westwood Well

[VALVES]
 CONTROL_MAPLEBENCH              CONTROL_MAPLEBENCH_NU           CONTROL_MAPLEBENCH_ND                12.0000   FCV   10000.0000       0.0000 ;SEE RULE-BASED CONTROLS
 PRV_400N-Z3                     PRV_400N-Z3_NU                  PRV_400N-Z3_ND                        8.0000   PRV      65.0000       0.0000 ;was 72
 PRV_MAPLE-Z2_LOWERTANK          PRV_MAPLE-Z2_LOWERTANK_NU       PRV_MAPLE-Z2_LOWERTANK_ND            12.0000   PRV      49.0000       0.0000 ;39 - match datalogger. 55 - 2/12/21 City. 50 - 1/26/21 City
 PRV_MAPLE-Z3_LOWERTANKS         PRV_MAPLE-Z3_LOWERTANKS_NU      PRV_MAPLE-Z3_LOWERTANKS_ND           12.0000   PRV      55.0000       0.0000 ;62 match pressure logger. 55 psi 2/12/21 City. 64 psi 1/26/2
 PRV_MAPLECANYON                 PRV_MAPLECANYON_NU              PRV_MAPLECANYON_ND                   12.0000   PRV       0.0000       0.0000
 PRV_Z2-Z1_1600N                 PRV_Z2-Z1_1600N_NU              PRV_Z2-Z1_1600N_ND                   12.0000   PRV      52.0000       0.0000 ;60 psi per 1/26/21 City, 55.3 to match HGL
 PRV_Z2-Z1_1600S                 PRV_Z2-Z1_1600S_NU              PRV_Z2-Z1_1600S_ND                   12.0000   PRV      46.0000       0.0000 ;49.6 to match zone HGL, 50 psi per City 1/26/21
 PRV_Z2-Z1_400N                  PRV_Z2-Z1_400N_NU               PRV_Z2-Z1_400N_ND                    12.0000   PRV      53.0000       0.0000 ;60 per City 2-12-21. 60.1 to match zone HGL, 59 psi per 1/26
 PRV_Z2-Z1_400S                  PRV_Z2-Z1_400S_NU               PRV_Z2-Z1_400S_ND                     8.0000   PRV      48.0000       0.0000 ;51.4 psi to match zone HGL, 60 psi per City 1/26/21
 PRV_Z2-Z1_800W_2                PRV_Z2-Z1_800W_2_NU             PRV_Z2-Z1_800W_2_ND                  12.0000   PRV       0.0000      10.0000
 PRV_Z2-Z1_LOWERTWINHOLLOW       PRV_Z2-Z1_LOWERTWINHOLLOW_NU    PRV_Z2-Z1_LOWERTWINHOLLOW_ND         12.0000   PRV      43.0000       0.0000 ;55 per 2-12-21 City. 46.6 to match zone HGL, 50 psi per City
 PRV_Z2-Z1_SOUTHMAIN             PRV_Z2-Z1_SOUTHMAIN_NU          PRV_Z2-Z1_SOUTHMAIN_ND               12.0000   PRV      44.0000       0.0000 ;51 per 2-12-21 City. 47.2 to match zone HGL, 50 psi per City
 PRV_Z2-Z1_VILLAGE               PRV_Z2-Z1_VILLAGE_NU            PRV_Z2-Z1_VILLAGE_ND                 12.0000   PRV      55.0000       0.0000
 PRV_Z3-Z2_1600S                 PRV_Z3-Z2_1600S_NU              PRV_Z3-Z2_1600S_ND                   12.0000   PRV      77.0000       0.0000 ;90 per 2-12-21 City. 70 psi to match zone HGL, 95 psi per Ci
 PRV_Z3-Z2_850N1800E             PRV_Z3-Z2_850N1800E_NU          PRV_Z3-Z2_850N1800E_ND                8.0000   PRV      88.0000       0.0000 ;94 per 2-12-21 City. 81.5 psi to match HGL, 90 psi per City
 PRV_Z3-Z2_BENCH                 PRV_Z3-Z2_BENCH_NU              PRV_Z3-Z2_BENCH_ND                   12.0000   PRV      70.0000       0.0000
 PRV_Z3-Z2_EAGLECOURT            PRV_Z3-Z2_EAGLECOURT_NU         PRV_Z3-Z2_EAGLECOURT_ND               8.0000   PRV      68.0000       0.0000 ;59.4 to match zone HGL, 80 per City 1/26/21
 PRV_Z3-Z2_HIDDENNORTH           PRV_Z3-Z2_HIDDENNORTH_NU        PRV_Z3-Z2_HIDDENNORTH_ND             12.0000   PRV      56.0000       0.0000 ;49.7 to match zone HGL, 60 psi per City 1/26/21 and 2/9/21
 PRV_Z3-Z2_VILLAGE               PRV_Z3-Z2_VILLAGE_NU            PRV_Z3-Z2_VILLAGE_ND                 12.0000   PRV      41.0000       0.0000

[DEMANDS]
 J10                                  11.774763  PEAKDAY_FROM_TANK_CAL          
 J100                                  0.981230  PEAKDAY_FROM_TANK_CAL          
 J1000                                 0.654154  PEAKDAY_FROM_TANK_CAL          
 J1002                                 0.163538  PEAKDAY_FROM_TANK_CAL          
 J1004                                 0.000000  PEAKDAY_FROM_TANK_CAL          
 J1006                                 2.453076  PEAKDAY_FROM_TANK_CAL          
 J1008                                 0.490615  PEAKDAY_FROM_TANK_CAL          
 J1010                                 0.817692  PEAKDAY_FROM_TANK_CAL          
 J1012                                 0.163538  PEAKDAY_FROM_TANK_CAL          
 J1014                                 3.270768  PEAKDAY_FROM_TANK_CAL          
 J1016                                 3.270768  PEAKDAY_FROM_TANK_CAL          
 J1018                                12.101840  PEAKDAY_FROM_TANK_CAL          
 J102                                  3.270768  PEAKDAY_FROM_TANK_CAL          
 J1020                                 0.327077  PEAKDAY_FROM_TANK_CAL          
 J1022                                 3.597844  PEAKDAY_FROM_TANK_CAL          
 J1024                                 0.981230  PEAKDAY_FROM_TANK_CAL          
 J1026                                 3.434306  PEAKDAY_FROM_TANK_CAL          
 J1028                                 1.798922  PEAKDAY_FROM_TANK_CAL          
 J1030                                 1.308307  PEAKDAY_FROM_TANK_CAL          
 J1032                                 1.308307  PEAKDAY_FROM_TANK_CAL          
 J1034                                 0.654154  PEAKDAY_FROM_TANK_CAL          
 J1036                                 2.125999  PEAKDAY_FROM_TANK_CAL          
 J1038                                 1.962461  PEAKDAY_FROM_TANK_CAL          
 J104                                  2.780152  PEAKDAY_FROM_TANK_CAL          
 J1040                                 2.616614  PEAKDAY_FROM_TANK_CAL          
 J1042                                 1.798922  PEAKDAY_FROM_TANK_CAL          
 J1044                                 0.654154  PEAKDAY_FROM_TANK_CAL          
 J1046                                 0.981230  PEAKDAY_FROM_TANK_CAL          
 J1048                                 1.308307  PEAKDAY_FROM_TANK_CAL          
 J1050                                 1.308307  PEAKDAY_FROM_TANK_CAL          
 J1052                                 1.962461  PEAKDAY_FROM_TANK_CAL          
 J1054                                 0.981230  PEAKDAY_FROM_TANK_CAL          
 J1056                                 0.163538  PEAKDAY_FROM_TANK_CAL          
 J1058                                 2.780152  PEAKDAY_FROM_TANK_CAL          
 J106                                  1.144769  PEAKDAY_FROM_TANK_CAL          
 J1060                                 1.798922  PEAKDAY_FROM_TANK_CAL          
 J1062                                 7.032150  PEAKDAY_FROM_TANK_CAL          
 J1064                                 2.125999  PEAKDAY_FROM_TANK_CAL          
 J1066                                 1.308307  PEAKDAY_FROM_TANK_CAL          
 J1068                                 2.780152  PEAKDAY_FROM_TANK_CAL          
 J1070                                 0.817692  PEAKDAY_FROM_TANK_CAL          
 J1072                                 2.616614  PEAKDAY_FROM_TANK_CAL          
 J1074                                 0.654154  PEAKDAY_FROM_TANK_CAL          
 J1076                                 0.000000  PEAKDAY_FROM_TANK_CAL          
 J1078                                 1.798922  PEAKDAY_FROM_TANK_CAL          
 J108                                  0.817692  PEAKDAY_FROM_TANK_CAL          
 J1080                                 0.000000  PEAKDAY_FROM_TANK_CAL          
 J1082                                 0.490615  PEAKDAY_FROM_TANK_CAL          
 J1084                                 1.144769  PEAKDAY_FROM_TANK_CAL          
 J1086                                 0.817692  PEAKDAY_FROM_TANK_CAL          
 J1088                                 0.000000  PEAKDAY_FROM_TANK_CAL          
 J1090                                 0.817692  PEAKDAY_FROM_TANK_CAL          
 J1092                                 0.163538  PEAKDAY_FROM_TANK_CAL          
 J1094                                 2.616614  PEAKDAY_FROM_TANK_CAL          
 J1096                                 3.107229  PEAKDAY_FROM_TANK_CAL          
 J1098                                 0.490615  PEAKDAY_FROM_TANK_CAL          
 J110                                  3.924921  PEAKDAY_FROM_TANK_CAL          
 J1100                                 2.453076  PEAKDAY_FROM_TANK_CAL          
 J1102                                 3.270768  PEAKDAY_FROM_TANK_CAL          
 J1104                                 1.798922  PEAKDAY_FROM_TANK_CAL          
 J1106                                 0.817692  PEAKDAY_FROM_TANK_CAL          
 J1108                                 3.434306  PEAKDAY_FROM_TANK_CAL          
 J1110                                 5.887382  PEAKDAY_FROM_TANK_CAL          
 J1112                                 6.868612  PEAKDAY_FROM_TANK_CAL          
 J1114                                 0.490615  PEAKDAY_FROM_TANK_CAL          
 J1116                                 1.308307  PEAKDAY_FROM_TANK_CAL          
 J1118                                 1.471845  PEAKDAY_FROM_TANK_CAL          
 J112                                  0.000000  PEAKDAY_FROM_TANK_CAL          
 J1120                                 0.327077  PEAKDAY_FROM_TANK_CAL          
 J1122                                 3.434306  PEAKDAY_FROM_TANK_CAL          
 J1124                                 4.906151  PEAKDAY_FROM_TANK_CAL          
 J1126                                 1.962461  PEAKDAY_FROM_TANK_CAL          
 J1128                                 0.327077  PEAKDAY_FROM_TANK_CAL          
 J1130                                 0.981230  PEAKDAY_FROM_TANK_CAL          
 J1132                                 1.798922  PEAKDAY_FROM_TANK_CAL          
 J1134                                 0.163538  PEAKDAY_FROM_TANK_CAL          
 J1136                                 1.144769  PEAKDAY_FROM_TANK_CAL          
 J1138                                 1.471845  PEAKDAY_FROM_TANK_CAL          
 J114                                  0.981230  PEAKDAY_FROM_TANK_CAL          
 J1140                                 0.490615  PEAKDAY_FROM_TANK_CAL          
 J1142                                 1.962461  PEAKDAY_FROM_TANK_CAL          
 J1144                                 1.635384  PEAKDAY_FROM_TANK_CAL          
 J1146                                 1.144769  PEAKDAY_FROM_TANK_CAL          
 J1148                                 3.597844  PEAKDAY_FROM_TANK_CAL          
 J1150                                 3.107229  PEAKDAY_FROM_TANK_CAL          
 J1152                                 1.962461  PEAKDAY_FROM_TANK_CAL          
 J1154                                 3.434306  PEAKDAY_FROM_TANK_CAL          
 J1156                                 2.453076  PEAKDAY_FROM_TANK_CAL          
 J1158                                 0.490615  PEAKDAY_FROM_TANK_CAL          
 J116                                  2.125999  PEAKDAY_FROM_TANK_CAL          
 J1160                                 1.308307  PEAKDAY_FROM_TANK_CAL          
 J1162                                 0.654154  PEAKDAY_FROM_TANK_CAL          
 J1164                                 1.471845  PEAKDAY_FROM_TANK_CAL          
 J1166                                 5.887382  PEAKDAY_FROM_TANK_CAL          
 J1168                                 1.798922  PEAKDAY_FROM_TANK_CAL          
 J1170                                 0.490615  PEAKDAY_FROM_TANK_CAL          
 J1172                                 5.233228  PEAKDAY_FROM_TANK_CAL          
 J1174                                 3.434306  PEAKDAY_FROM_TANK_CAL          
 J1176                                 4.251998  PEAKDAY_FROM_TANK_CAL          
 J1178                                 8.340457  PEAKDAY_FROM_TANK_CAL          
 J118                                  0.327077  PEAKDAY_FROM_TANK_CAL          
 J1180                                 0.654154  PEAKDAY_FROM_TANK_CAL          
 J1182                                 0.490615  PEAKDAY_FROM_TANK_CAL          
 J1184                                 0.490615  PEAKDAY_FROM_TANK_CAL          
 J1186                                 1.308307  PEAKDAY_FROM_TANK_CAL          
 J1188                                 8.503996  PEAKDAY_FROM_TANK_CAL          
 J1190                                 0.327077  PEAKDAY_FROM_TANK_CAL          
 J1192                                 0.817692  PEAKDAY_FROM_TANK_CAL          
 J1194                                 0.000000  PEAKDAY_FROM_TANK_CAL          
 J1196                                 2.453076  PEAKDAY_FROM_TANK_CAL          
 J1198                                 3.434306  PEAKDAY_FROM_TANK_CAL          
 J12                                  15.209069  PEAKDAY_FROM_TANK_CAL          
 J120                                  0.490615  PEAKDAY_FROM_TANK_CAL          
 J1200                                 1.308307  PEAKDAY_FROM_TANK_CAL          
 J1202                                 1.962461  PEAKDAY_FROM_TANK_CAL          
 J1204                                 4.251998  PEAKDAY_FROM_TANK_CAL          
 J1206                                 0.327077  PEAKDAY_FROM_TANK_CAL          
 J1210                                 3.107229  PEAKDAY_FROM_TANK_CAL          
 J1212                                 1.962461  PEAKDAY_FROM_TANK_CAL          
 J1214                                 1.144769  PEAKDAY_FROM_TANK_CAL          
 J1216                                 0.163538  PEAKDAY_FROM_TANK_CAL          
 J1218                                 1.308307  PEAKDAY_FROM_TANK_CAL          
 J122                                  9.648764  PEAKDAY_FROM_TANK_CAL          
 J1220                                 1.144769  PEAKDAY_FROM_TANK_CAL          
 J1222                                 0.163538  PEAKDAY_FROM_TANK_CAL          
 J1224                                 2.616614  PEAKDAY_FROM_TANK_CAL          
 J1226                                 0.490615  PEAKDAY_FROM_TANK_CAL          
 J1228                                 0.490615  PEAKDAY_FROM_TANK_CAL          
 J1230                                 0.163538  PEAKDAY_FROM_TANK_CAL          
 J1232                                 0.490615  PEAKDAY_FROM_TANK_CAL          
 J1234                                 0.654154  PEAKDAY_FROM_TANK_CAL          
 J1236                                 1.798922  PEAKDAY_FROM_TANK_CAL          
 J1238                                 0.163538  PEAKDAY_FROM_TANK_CAL          
 J124                                  1.308307  PEAKDAY_FROM_TANK_CAL          
 J1240                                17.498607  PEAKDAY_FROM_TANK_CAL          
 J1242                                 0.654154  PEAKDAY_FROM_TANK_CAL          
 J1244                                 0.000000  PEAKDAY_FROM_TANK_CAL          
 J1246                                 0.000000  PEAKDAY_FROM_TANK_CAL          
 J1248                                 0.000000  PEAKDAY_FROM_TANK_CAL          
 J1250                                 0.000000  PEAKDAY_FROM_TANK_CAL          
 J1252                                 2.289537  PEAKDAY_FROM_TANK_CAL          
 J1254                                 0.000000  PEAKDAY_FROM_TANK_CAL          
 J1256                                 7.195689  PEAKDAY_FROM_TANK_CAL          
 J1258                                 0.000000  PEAKDAY_FROM_TANK_CAL          
 J126                                  1.635384  PEAKDAY_FROM_TANK_CAL          
 J1260                                 4.088459  PEAKDAY_FROM_TANK_CAL          
 J1262                                 0.000000  PEAKDAY_FROM_TANK_CAL          
 J1264                                 0.000000  PEAKDAY_FROM_TANK_CAL          
 J1266                                82.586882  PEAKDAY_FROM_TANK_CAL          
 J1268                                 0.817692  PEAKDAY_FROM_TANK_CAL          
 J1270                                 0.000000  PEAKDAY_FROM_TANK_CAL          
 J1272                                 0.000000  PEAKDAY_FROM_TANK_CAL          
 J1274                                 0.000000  PEAKDAY_FROM_TANK_CAL          
 J1276                                 0.000000  PEAKDAY_FROM_TANK_CAL          
 J1278                                 0.000000  PEAKDAY_FROM_TANK_CAL          
 J128                                  0.163538  PEAKDAY_FROM_TANK_CAL          
 J1282                                 0.000000  PEAKDAY_FROM_TANK_CAL          
 J1284                                 0.000000  PEAKDAY_FROM_TANK_CAL          
 J1286                                 0.000000  PEAKDAY_FROM_TANK_CAL          
 J1288                                 0.000000  PEAKDAY_FROM_TANK_CAL          
 J1290                                 0.000000  PEAKDAY_FROM_TANK_CAL          
 J1292                                 0.000000  PEAKDAY_FROM_TANK_CAL          
 J1294                                 0.000000  PEAKDAY_FROM_TANK_CAL          
 J1296                                 0.000000  PEAKDAY_FROM_TANK_CAL          
 J1298                                 0.000000  PEAKDAY_FROM_TANK_CAL          
 J130                                  0.654154  PEAKDAY_FROM_TANK_CAL          
 J1300                                 0.000000  PEAKDAY_FROM_TANK_CAL          
 J1302                                 0.000000  PEAKDAY_FROM_TANK_CAL          
 J1304                                 0.000000  PEAKDAY_FROM_TANK_CAL          
 J1306                                 0.000000  PEAKDAY_FROM_TANK_CAL          
 J1310                                 0.000000  PEAKDAY_FROM_TANK_CAL          
 J1312                                 2.125999  PEAKDAY_FROM_TANK_CAL          
 J1314                                16.190300  PEAKDAY_FROM_TANK_CAL          
 J1316                                14.554916  PEAKDAY_FROM_TANK_CAL          
 J1318                                 0.000000  PEAKDAY_FROM_TANK_CAL          
 J132                                  0.000000  PEAKDAY_FROM_TANK_CAL          
 J1320                                31.072292  PEAKDAY_FROM_TANK_CAL          
 J1322                                 3.434306  PEAKDAY_FROM_TANK_CAL          
 J1324                                10.466456  PEAKDAY_FROM_TANK_CAL          
 J1326                                 1.635384  PEAKDAY_FROM_TANK_CAL          
 J1328                                 0.817692  PEAKDAY_FROM_TANK_CAL          
 J1330                                 1.635384  PEAKDAY_FROM_TANK_CAL          
 J1332                                 1.798922  PEAKDAY_FROM_TANK_CAL          
 J1334                                 1.962461  PEAKDAY_FROM_TANK_CAL          
 J1336                                 0.327077  PEAKDAY_FROM_TANK_CAL          
 J1338                                 0.163538  PEAKDAY_FROM_TANK_CAL          
 J134                                  1.144769  PEAKDAY_FROM_TANK_CAL          
 J1340                                 1.798922  PEAKDAY_FROM_TANK_CAL          
 J1342                                 0.981230  PEAKDAY_FROM_TANK_CAL          
 J1344                                 0.981230  PEAKDAY_FROM_TANK_CAL          
 J1346                                 0.981230  PEAKDAY_FROM_TANK_CAL          
 J1348                                 5.233228  PEAKDAY_FROM_TANK_CAL          
 J1350                                12.101840  PEAKDAY_FROM_TANK_CAL          
 J1352                                 0.000000  PEAKDAY_FROM_TANK_CAL          
 J1354                                 4.742613  PEAKDAY_FROM_TANK_CAL          
 J1356                                 0.163538  PEAKDAY_FROM_TANK_CAL          
 J1358                                 7.849842  PEAKDAY_FROM_TANK_CAL          
 J136                                  2.289537  PEAKDAY_FROM_TANK_CAL          
 J1360                                 1.798922  PEAKDAY_FROM_TANK_CAL          
 J1362                                 2.616614  PEAKDAY_FROM_TANK_CAL          
 J1364                                 5.069690  PEAKDAY_FROM_TANK_CAL          
 J1366                                 2.616614  PEAKDAY_FROM_TANK_CAL          
 J1368                                 0.327077  PEAKDAY_FROM_TANK_CAL          
 J1370                                 3.270768  PEAKDAY_FROM_TANK_CAL          
 J1372                                 5.887382  PEAKDAY_FROM_TANK_CAL          
 J1374                                 0.000000  PEAKDAY_FROM_TANK_CAL          
 J1376                                 0.163538  PEAKDAY_FROM_TANK_CAL          
 J1378                                 2.125999  PEAKDAY_FROM_TANK_CAL          
 J138                                  3.434306  PEAKDAY_FROM_TANK_CAL          
 J1380                                 0.817692  PEAKDAY_FROM_TANK_CAL          
 J1382                                 0.817692  PEAKDAY_FROM_TANK_CAL          
 J1384                                 0.817692  PEAKDAY_FROM_TANK_CAL          
 J1386                                 8.667534  PEAKDAY_FROM_TANK_CAL          
 J1388                                 0.490615  PEAKDAY_FROM_TANK_CAL          
 J1390                                 1.144769  PEAKDAY_FROM_TANK_CAL          
 J1392                                 6.705074  PEAKDAY_FROM_TANK_CAL          
 J1394                                 7.849842  PEAKDAY_FROM_TANK_CAL          
 J1396                                 1.962461  PEAKDAY_FROM_TANK_CAL          
 J1398                                 6.541535  PEAKDAY_FROM_TANK_CAL          
 J14                                   5.887382  PEAKDAY_FROM_TANK_CAL          
 J140                                  0.000000  PEAKDAY_FROM_TANK_CAL          
 J1400                                 1.635384  PEAKDAY_FROM_TANK_CAL          
 J1402                                33.688906  PEAKDAY_FROM_TANK_CAL          
 J1404                                 1.144769  PEAKDAY_FROM_TANK_CAL          
 J1406                                 2.616614  PEAKDAY_FROM_TANK_CAL          
 J1408                                 0.327077  PEAKDAY_FROM_TANK_CAL          
 J1410                                 0.654154  PEAKDAY_FROM_TANK_CAL          
 J1412                                 0.000000  PEAKDAY_FROM_TANK_CAL          
 J1414                                 0.000000  PEAKDAY_FROM_TANK_CAL          
 J1416                                 0.000000  PEAKDAY_FROM_TANK_CAL          
 J1418                                 0.000000  PEAKDAY_FROM_TANK_CAL          
 J142                                  6.868612  PEAKDAY_FROM_TANK_CAL          
 J1422                                 0.000000  PEAKDAY_FROM_TANK_CAL          
 J1424                                 0.000000  PEAKDAY_FROM_TANK_CAL          
 J1426                                 0.000000  PEAKDAY_FROM_TANK_CAL          
 J1428                                 0.000000  PEAKDAY_FROM_TANK_CAL          
 J1430                                 2.780152  PEAKDAY_FROM_TANK_CAL          
 J1432                                 0.000000  PEAKDAY_FROM_TANK_CAL          
 J1434                                 0.327077  PEAKDAY_FROM_TANK_CAL          
 J1436                                 0.000000  PEAKDAY_FROM_TANK_CAL          
 J1438                                 0.000000  PEAKDAY_FROM_TANK_CAL          
 J144                                  6.377997  PEAKDAY_FROM_TANK_CAL          
 J1440                                 9.975841  PEAKDAY_FROM_TANK_CAL          
 J1442                                15.699684  PEAKDAY_FROM_TANK_CAL          
 J1444                                 9.158149  PEAKDAY_FROM_TANK_CAL          
 J1446                                 3.434306  PEAKDAY_FROM_TANK_CAL          
 J1448                                 1.962461  PEAKDAY_FROM_TANK_CAL          
 J1450                                 5.723843  PEAKDAY_FROM_TANK_CAL          
 J1452                                 3.924921  PEAKDAY_FROM_TANK_CAL          
 J1454                                 2.616614  PEAKDAY_FROM_TANK_CAL          
 J1456                                 7.195689  PEAKDAY_FROM_TANK_CAL          
 J1458                                 2.616614  PEAKDAY_FROM_TANK_CAL          
 J146                                  3.434306  PEAKDAY_FROM_TANK_CAL          
 J1462                                 3.107229  PEAKDAY_FROM_TANK_CAL          
 J1464                                 4.906151  PEAKDAY_FROM_TANK_CAL          
 J1466                                 0.000000  PEAKDAY_FROM_TANK_CAL          
 J1468                                 5.396767  PEAKDAY_FROM_TANK_CAL          
 J1470                                 0.000000  PEAKDAY_FROM_TANK_CAL          
 J1472                                 0.000000  PEAKDAY_FROM_TANK_CAL          
 J1474                                 0.000000  PEAKDAY_FROM_TANK_CAL          
 J1476                                 4.088459  PEAKDAY_FROM_TANK_CAL          
 J1478                                 0.000000  PEAKDAY_FROM_TANK_CAL          
 J148                                  0.000000  PEAKDAY_FROM_TANK_CAL          
 J1480                                 0.000000  PEAKDAY_FROM_TANK_CAL          
 J1484                                 2.780152  PEAKDAY_FROM_TANK_CAL          
 J1486                                 1.635384  PEAKDAY_FROM_TANK_CAL          
 J1490                                 0.000000  PEAKDAY_FROM_TANK_CAL          
 J1492                                 1.962461  PEAKDAY_FROM_TANK_CAL          
 J1494                                 2.943691  PEAKDAY_FROM_TANK_CAL          
 J1496                                 0.490615  PEAKDAY_FROM_TANK_CAL          
 J1498                                 2.125999  PEAKDAY_FROM_TANK_CAL          
 J150                                  0.000000  PEAKDAY_FROM_TANK_CAL          
 J1500                                 0.163538  PEAKDAY_FROM_TANK_CAL          
 J1502                                 0.000000  PEAKDAY_FROM_TANK_CAL          
 J1504                                 1.144769  PEAKDAY_FROM_TANK_CAL          
 J1506                                 0.000000  PEAKDAY_FROM_TANK_CAL          
 J1508                                 0.981230  PEAKDAY_FROM_TANK_CAL          
 J1510                                 4.579075  PEAKDAY_FROM_TANK_CAL          
 J1512                                 2.453076  PEAKDAY_FROM_TANK_CAL          
 J1514                                 0.817692  PEAKDAY_FROM_TANK_CAL          
 J1516                                 4.579075  PEAKDAY_FROM_TANK_CAL          
 J1518                                 2.616614  PEAKDAY_FROM_TANK_CAL          
 J152                                  0.000000  PEAKDAY_FROM_TANK_CAL          
 J1520                                 8.503996  PEAKDAY_FROM_TANK_CAL          
 J1522                                 3.924921  PEAKDAY_FROM_TANK_CAL          
 J1524                                31.726446  PEAKDAY_FROM_TANK_CAL          
 J1526                                 6.541535  PEAKDAY_FROM_TANK_CAL          
 J1528                                21.587066  PEAKDAY_FROM_TANK_CAL          
 J1530                                 8.831073  PEAKDAY_FROM_TANK_CAL          
 J1532                                 1.308307  PEAKDAY_FROM_TANK_CAL          
 J1534                                 0.000000  PEAKDAY_FROM_TANK_CAL          
 J1536                                 0.000000  PEAKDAY_FROM_TANK_CAL          
 J1538                                 4.906151  PEAKDAY_FROM_TANK_CAL          
 J154                                  0.000000  PEAKDAY_FROM_TANK_CAL          
 J1540                                14.718454  PEAKDAY_FROM_TANK_CAL          
 J1542                                12.919532  PEAKDAY_FROM_TANK_CAL          
 J1544                                21.259989  PEAKDAY_FROM_TANK_CAL          
 J1546                                 6.377997  PEAKDAY_FROM_TANK_CAL          
 J1548                                 0.163538  PEAKDAY_FROM_TANK_CAL          
 J1550                                 0.654154  PEAKDAY_FROM_TANK_CAL          
 J1552                                 0.817692  PEAKDAY_FROM_TANK_CAL          
 J1554                                 1.308307  PEAKDAY_FROM_TANK_CAL          
 J1556                                 1.471845  PEAKDAY_FROM_TANK_CAL          
 J1558                                 0.490615  PEAKDAY_FROM_TANK_CAL          
 J156                                  0.000000  PEAKDAY_FROM_TANK_CAL          
 J1560                                 9.485226  PEAKDAY_FROM_TANK_CAL          
 J1562                                 0.000000  PEAKDAY_FROM_TANK_CAL          
 J1564                                 1.635384  PEAKDAY_FROM_TANK_CAL          
 J1566                                 8.503996  PEAKDAY_FROM_TANK_CAL          
 J1568                                 1.471845  PEAKDAY_FROM_TANK_CAL          
 J1570                                 0.327077  PEAKDAY_FROM_TANK_CAL          
 J1572                                 1.798922  PEAKDAY_FROM_TANK_CAL          
 J1574                                 5.233228  PEAKDAY_FROM_TANK_CAL          
 J1576                                51.023975  PEAKDAY_FROM_TANK_CAL          
 J1578                                 0.327077  PEAKDAY_FROM_TANK_CAL          
 J158                                  0.000000  PEAKDAY_FROM_TANK_CAL          
 J1580                                 0.163538  PEAKDAY_FROM_TANK_CAL          
 J1582                                 0.000000  PEAKDAY_FROM_TANK_CAL          
 J1584                                10.302918  PEAKDAY_FROM_TANK_CAL          
 J1586                                 0.981230  PEAKDAY_FROM_TANK_CAL          
 J1588                                19.461067  PEAKDAY_FROM_TANK_CAL          
 J1590                                 5.723843  PEAKDAY_FROM_TANK_CAL          
 J1592                                 1.635384  PEAKDAY_FROM_TANK_CAL          
 J1594                                 0.654154  PEAKDAY_FROM_TANK_CAL          
 J1596                                 1.962461  PEAKDAY_FROM_TANK_CAL          
 J1598                                 0.327077  PEAKDAY_FROM_TANK_CAL          
 J16                                   9.158149  PEAKDAY_FROM_TANK_CAL          
 J1600                                 0.981230  PEAKDAY_FROM_TANK_CAL          
 J1602                                 2.289537  PEAKDAY_FROM_TANK_CAL          
 J1604                                 0.654154  PEAKDAY_FROM_TANK_CAL          
 J1606                                 1.471845  PEAKDAY_FROM_TANK_CAL          
 J1608                                 0.000000  PEAKDAY_FROM_TANK_CAL          
 J1610                                 3.270768  PEAKDAY_FROM_TANK_CAL          
 J1612                                 1.144769  PEAKDAY_FROM_TANK_CAL          
 J1614                                 0.000000  PEAKDAY_FROM_TANK_CAL          
 J1616                                 0.000000  PEAKDAY_FROM_TANK_CAL          
 J162                                  0.000000  PEAKDAY_FROM_TANK_CAL          
 J1620                                 0.000000  PEAKDAY_FROM_TANK_CAL          
 J1626                                 0.000000  PEAKDAY_FROM_TANK_CAL          
 J1628                                 7.195689  PEAKDAY_FROM_TANK_CAL          
 J1630                                32.544138  PEAKDAY_FROM_TANK_CAL          
 J1632                                 2.453076  PEAKDAY_FROM_TANK_CAL          
 J1634                                21.259989  PEAKDAY_FROM_TANK_CAL          
 J1636                                14.554916  PEAKDAY_FROM_TANK_CAL          
 J1638                                 0.490615  PEAKDAY_FROM_TANK_CAL          
 J164                                  0.000000  PEAKDAY_FROM_TANK_CAL          
 J1640                                 0.981230  PEAKDAY_FROM_TANK_CAL          
 J1642                                26.983833  PEAKDAY_FROM_TANK_CAL          
 J1644                                 2.453076  PEAKDAY_FROM_TANK_CAL          
 J1646                                 0.490615  PEAKDAY_FROM_TANK_CAL          
 J1648                                 1.798922  PEAKDAY_FROM_TANK_CAL          
 J1650                                 4.742613  PEAKDAY_FROM_TANK_CAL          
 J1652                                 0.000000  PEAKDAY_FROM_TANK_CAL          
 J1654                                13.900762  PEAKDAY_FROM_TANK_CAL          
 J1656                                17.825683  PEAKDAY_FROM_TANK_CAL          
 J1658                                15.699684  PEAKDAY_FROM_TANK_CAL          
 J166                                  0.000000  PEAKDAY_FROM_TANK_CAL          
 J1660                                 0.981230  PEAKDAY_FROM_TANK_CAL          
 J1662                                 2.943691  PEAKDAY_FROM_TANK_CAL          
 J1664                                 0.981230  PEAKDAY_FROM_TANK_CAL          
 J1666                                 2.616614  PEAKDAY_FROM_TANK_CAL          
 J1668                                 3.434306  PEAKDAY_FROM_TANK_CAL          
 J1670                                 5.560305  PEAKDAY_FROM_TANK_CAL          
 J1672                                 1.308307  PEAKDAY_FROM_TANK_CAL          
 J1674                                 0.981230  PEAKDAY_FROM_TANK_CAL          
 J1676                                 0.654154  PEAKDAY_FROM_TANK_CAL          
 J1678                                 0.817692  PEAKDAY_FROM_TANK_CAL          
 J168                                  0.000000  PEAKDAY_FROM_TANK_CAL          
 J1680                                 6.705074  PEAKDAY_FROM_TANK_CAL          
 J1682                                32.217061  PEAKDAY_FROM_TANK_CAL          
 J1684                                 7.849842  PEAKDAY_FROM_TANK_CAL          
 J1686                                31.889984  PEAKDAY_FROM_TANK_CAL          
 J1688                                 4.415536  PEAKDAY_FROM_TANK_CAL          
 J1690                                 5.069690  PEAKDAY_FROM_TANK_CAL          
 J1692                                18.152760  PEAKDAY_FROM_TANK_CAL          
 J1694                                 0.000000  PEAKDAY_FROM_TANK_CAL          
 J1696                                 0.000000  PEAKDAY_FROM_TANK_CAL          
 J1698                                 0.000000  PEAKDAY_FROM_TANK_CAL          
 J170                                  0.000000  PEAKDAY_FROM_TANK_CAL          
 J1700                                 0.000000  PEAKDAY_FROM_TANK_CAL          
 J1702                                 0.163538  PEAKDAY_FROM_TANK_CAL          
 J1704                                 2.453076  PEAKDAY_FROM_TANK_CAL          
 J1704                             -2500.000000  CONSTANT                       
 J1706                                 0.000000  PEAKDAY_FROM_TANK_CAL          
 J1708                                 0.000000  PEAKDAY_FROM_TANK_CAL          
 J1710                                 1.962461  PEAKDAY_FROM_TANK_CAL          
 J1712                                 0.000000  PEAKDAY_FROM_TANK_CAL          
 J1714                                 0.000000  PEAKDAY_FROM_TANK_CAL          
 J1716                                 2.453076  PEAKDAY_FROM_TANK_CAL          
 J1718                                 0.490615  PEAKDAY_FROM_TANK_CAL          
 J172                                  0.000000  PEAKDAY_FROM_TANK_CAL          
 J1720                                 5.560305  PEAKDAY_FROM_TANK_CAL          
 J1722                                13.573686  PEAKDAY_FROM_TANK_CAL          
 J1724                                 6.050920  PEAKDAY_FROM_TANK_CAL          
 J1726                                 0.163538  PEAKDAY_FROM_TANK_CAL          
 J1732                                15.699684  PEAKDAY_FROM_TANK_CAL          
 J1734                                 4.088459  PEAKDAY_FROM_TANK_CAL          
 J1736                                 4.742613  PEAKDAY_FROM_TANK_CAL          
 J1738                                 0.000000  PEAKDAY_FROM_TANK_CAL          
 J174                                  0.000000  PEAKDAY_FROM_TANK_CAL          
 J1740                                22.077681  PEAKDAY_FROM_TANK_CAL          
 J1742                                 2.125999  PEAKDAY_FROM_TANK_CAL          
 J1744                                34.833675  PEAKDAY_FROM_TANK_CAL          
 J1746                                 0.000000  PEAKDAY_FROM_TANK_CAL          
 J1748                                 1.471845  PEAKDAY_FROM_TANK_CAL          
 J1750                                 0.000000  PEAKDAY_FROM_TANK_CAL          
 J1752                                 0.000000  PEAKDAY_FROM_TANK_CAL          
 J1754                                31.889984  PEAKDAY_FROM_TANK_CAL          
 J1756                                 0.000000  PEAKDAY_FROM_TANK_CAL          
 J1758                                 0.000000  PEAKDAY_FROM_TANK_CAL          
 J176                                  0.000000  PEAKDAY_FROM_TANK_CAL          
 J1760                                 0.000000  PEAKDAY_FROM_TANK_CAL          
 J1764                                 3.107229  PEAKDAY_FROM_TANK_CAL          
 J1772                                35.814905  PEAKDAY_FROM_TANK_CAL          
 J1776                                 0.000000  PEAKDAY_FROM_TANK_CAL          
 J1778                                 5.233228  PEAKDAY_FROM_TANK_CAL          
 J178                                  0.000000  PEAKDAY_FROM_TANK_CAL          
 J1780                                10.302918  PEAKDAY_FROM_TANK_CAL          
 J1782                                 3.107229  PEAKDAY_FROM_TANK_CAL          
 J1784                                 0.327077  PEAKDAY_FROM_TANK_CAL          
 J1786                                 4.906151  PEAKDAY_FROM_TANK_CAL          
 J1788                                 1.962461  PEAKDAY_FROM_TANK_CAL          
 J1790                                 0.000000  PEAKDAY_FROM_TANK_CAL          
 J1792                                 0.000000  PEAKDAY_FROM_TANK_CAL          
 J1794                                10.466456  PEAKDAY_FROM_TANK_CAL          
 J1796                                 9.158149  PEAKDAY_FROM_TANK_CAL          
 J1798                                 0.654154  PEAKDAY_FROM_TANK_CAL          
 J18                                   0.000000  PEAKDAY_FROM_TANK_CAL          
 J1800                                 1.798922  PEAKDAY_FROM_TANK_CAL          
 J1804                                 5.396767  PEAKDAY_FROM_TANK_CAL          
 J1812                                 3.270768  PEAKDAY_FROM_TANK_CAL          
 J1814                                 1.798922  PEAKDAY_FROM_TANK_CAL          
 J1816                                 6.705074  PEAKDAY_FROM_TANK_CAL          
 J1818                                 4.415536  PEAKDAY_FROM_TANK_CAL          
 J182                                  2.780152  PEAKDAY_FROM_TANK_CAL          
 J1820                                 0.490615  PEAKDAY_FROM_TANK_CAL          
 J1822                                 0.000000  PEAKDAY_FROM_TANK_CAL          
 J1824                                 0.327077  PEAKDAY_FROM_TANK_CAL          
 J1826                                 0.000000  PEAKDAY_FROM_TANK_CAL          
 J1828                                 4.251998  PEAKDAY_FROM_TANK_CAL          
 J1830                                 7.849842  PEAKDAY_FROM_TANK_CAL          
 J1832                                 4.251998  PEAKDAY_FROM_TANK_CAL          
 J1834                                 0.000000  PEAKDAY_FROM_TANK_CAL          
 J1838                                10.466456  PEAKDAY_FROM_TANK_CAL          
 J184                                  7.195689  PEAKDAY_FROM_TANK_CAL          
 J1840                                 0.654154  PEAKDAY_FROM_TANK_CAL          
 J1842                                 1.962461  PEAKDAY_FROM_TANK_CAL          
 J1844                                 0.163538  PEAKDAY_FROM_TANK_CAL          
 J1846                                 0.000000  PEAKDAY_FROM_TANK_CAL          
 J1848                                 6.705074  PEAKDAY_FROM_TANK_CAL          
 J1850                                11.611225  PEAKDAY_FROM_TANK_CAL          
 J1852                                 0.490615  PEAKDAY_FROM_TANK_CAL          
 J1854                                 3.434306  PEAKDAY_FROM_TANK_CAL          
 J1856                                 0.000000  PEAKDAY_FROM_TANK_CAL          
 J1858                                 0.490615  PEAKDAY_FROM_TANK_CAL          
 J186                                 12.101840  PEAKDAY_FROM_TANK_CAL          
 J1860                                 1.798922  PEAKDAY_FROM_TANK_CAL          
 J1862                                 0.000000  PEAKDAY_FROM_TANK_CAL          
 J1864                                 0.000000  PEAKDAY_FROM_TANK_CAL          
 J1866                                 0.000000  PEAKDAY_FROM_TANK_CAL          
 J1868                                 0.490615  PEAKDAY_FROM_TANK_CAL          
 J1870                                 0.163538  PEAKDAY_FROM_TANK_CAL          
 J1872                                 0.327077  PEAKDAY_FROM_TANK_CAL          
 J1874                                 0.327077  PEAKDAY_FROM_TANK_CAL          
 J1876                                 0.490615  PEAKDAY_FROM_TANK_CAL          
 J1878                                21.750605  PEAKDAY_FROM_TANK_CAL          
 J188                                  0.000000  PEAKDAY_FROM_TANK_CAL          
 J1880                                 0.000000  PEAKDAY_FROM_TANK_CAL          
 J1882                                 1.471845  PEAKDAY_FROM_TANK_CAL          
 J1884                                 1.635384  PEAKDAY_FROM_TANK_CAL          
 J1886                                 0.163538  PEAKDAY_FROM_TANK_CAL          
 J1888                                 0.000000  PEAKDAY_FROM_TANK_CAL          
 J1890                                 0.000000  PEAKDAY_FROM_TANK_CAL          
 J1892                                 0.000000  PEAKDAY_FROM_TANK_CAL          
 J1894                                 2.453076  PEAKDAY_FROM_TANK_CAL          
 J1896                                 1.471845  PEAKDAY_FROM_TANK_CAL          
 J1898                                 3.761383  PEAKDAY_FROM_TANK_CAL          
 J190                                  0.000000  PEAKDAY_FROM_TANK_CAL          
 J1900                                 0.490615  PEAKDAY_FROM_TANK_CAL          
 J1902                                 4.088459  PEAKDAY_FROM_TANK_CAL          
 J1904                                 1.144769  PEAKDAY_FROM_TANK_CAL          
 J1906                                 0.817692  PEAKDAY_FROM_TANK_CAL          
 J1908                                 0.000000  PEAKDAY_FROM_TANK_CAL          
 J1910                                 0.000000  PEAKDAY_FROM_TANK_CAL          
 J1912                                 0.000000  PEAKDAY_FROM_TANK_CAL          
 J1914                                 0.000000  PEAKDAY_FROM_TANK_CAL          
 J1916                                 0.000000  PEAKDAY_FROM_TANK_CAL          
 J1918                                 0.000000  PEAKDAY_FROM_TANK_CAL          
 J192                                  1.308307  PEAKDAY_FROM_TANK_CAL          
 J1920                                 0.000000  PEAKDAY_FROM_TANK_CAL          
 J1922                                 0.817692  PEAKDAY_FROM_TANK_CAL          
 J1924                                 0.163538  PEAKDAY_FROM_TANK_CAL          
 J1926                                 0.981230  PEAKDAY_FROM_TANK_CAL          
 J1928                                 0.163538  PEAKDAY_FROM_TANK_CAL          
 J1930                                 0.000000  PEAKDAY_FROM_TANK_CAL          
 J1932                                 0.000000  PEAKDAY_FROM_TANK_CAL          
 J1934                                 0.000000  PEAKDAY_FROM_TANK_CAL          
 J1936                                 0.000000  PEAKDAY_FROM_TANK_CAL          
 J1938                                 0.000000  PEAKDAY_FROM_TANK_CAL          
 J1940                                 0.000000  PEAKDAY_FROM_TANK_CAL          
 J1942                                 0.000000  PEAKDAY_FROM_TANK_CAL          
 J1946                                 0.000000  PEAKDAY_FROM_TANK_CAL          
 J1948                                 0.000000  PEAKDAY_FROM_TANK_CAL          
 J1950                                 0.654154  PEAKDAY_FROM_TANK_CAL          
 J1958                                 0.981230  PEAKDAY_FROM_TANK_CAL          
 J196                                  4.088459  PEAKDAY_FROM_TANK_CAL          
 J1962                                 1.471845  PEAKDAY_FROM_TANK_CAL          
 J1964                                 8.013381  PEAKDAY_FROM_TANK_CAL          
 J1966                                 0.327077  PEAKDAY_FROM_TANK_CAL          
 J1968                                 0.490615  PEAKDAY_FROM_TANK_CAL          
 J1970                                 7.686304  PEAKDAY_FROM_TANK_CAL          
 J1972                                 0.000000  PEAKDAY_FROM_TANK_CAL          
 J1974                                 0.654154  PEAKDAY_FROM_TANK_CAL          
 J1976                                 0.000000  PEAKDAY_FROM_TANK_CAL          
 J198                                 12.265379  PEAKDAY_FROM_TANK_CAL          
 J1984                                 0.000000  PEAKDAY_FROM_TANK_CAL          
 J1988                                 5.233228  PEAKDAY_FROM_TANK_CAL          
 J1992                                 0.000000  PEAKDAY_FROM_TANK_CAL          
 J20                                   3.597844  PEAKDAY_FROM_TANK_CAL          
 J200                                  0.000000  PEAKDAY_FROM_TANK_CAL          
 J2008                                 3.107229  PEAKDAY_FROM_TANK_CAL          
 J2010                                 0.000000  PEAKDAY_FROM_TANK_CAL          
 J2012                                 0.000000  PEAKDAY_FROM_TANK_CAL          
 J2014                                 0.000000  PEAKDAY_FROM_TANK_CAL          
 J2016                                 0.654154  PEAKDAY_FROM_TANK_CAL          
 J2018                                 0.163538  PEAKDAY_FROM_TANK_CAL          
 J202                                  2.453076  PEAKDAY_FROM_TANK_CAL          
 J2020                                 0.327077  PEAKDAY_FROM_TANK_CAL          
 J2022                                 1.144769  PEAKDAY_FROM_TANK_CAL          
 J2024                                 1.962461  PEAKDAY_FROM_TANK_CAL          
 J2028                                 0.490615  PEAKDAY_FROM_TANK_CAL          
 J2030                                 5.069690  PEAKDAY_FROM_TANK_CAL          
 J2032                                 9.485226  PEAKDAY_FROM_TANK_CAL          
 J2034                                10.139380  PEAKDAY_FROM_TANK_CAL          
 J2036                                 0.981230  PEAKDAY_FROM_TANK_CAL          
 J2038                                 1.144769  PEAKDAY_FROM_TANK_CAL          
 J204                                  0.000000  PEAKDAY_FROM_TANK_CAL          
 J2040                                12.101840  PEAKDAY_FROM_TANK_CAL          
 J2042                                 7.686304  PEAKDAY_FROM_TANK_CAL          
 J2044                                 0.490615  PEAKDAY_FROM_TANK_CAL          
 J2046                                 0.654154  PEAKDAY_FROM_TANK_CAL          
 J2048                                 6.214458  PEAKDAY_FROM_TANK_CAL          
 J2050                                 0.000000  PEAKDAY_FROM_TANK_CAL          
 J2052                                 4.251998  PEAKDAY_FROM_TANK_CAL          
 J2054                                 0.000000  PEAKDAY_FROM_TANK_CAL          
 J2056                                 0.000000  PEAKDAY_FROM_TANK_CAL          
 J2058                                 1.635384  PEAKDAY_FROM_TANK_CAL          
 J206                                  0.000000  PEAKDAY_FROM_TANK_CAL          
 J2060                                 0.327077  PEAKDAY_FROM_TANK_CAL          
 J2062                                 0.327077  PEAKDAY_FROM_TANK_CAL          
 J2064                                 1.962461  PEAKDAY_FROM_TANK_CAL          
 J2066                                 0.490615  PEAKDAY_FROM_TANK_CAL          
 J2068                                 0.981230  PEAKDAY_FROM_TANK_CAL          
 J2070                                 4.088459  PEAKDAY_FROM_TANK_CAL          
 J2072                                21.587066  PEAKDAY_FROM_TANK_CAL          
 J2074                                 0.000000  PEAKDAY_FROM_TANK_CAL          
 J2076                                 0.000000  PEAKDAY_FROM_TANK_CAL          
 J2078                                 0.000000  PEAKDAY_FROM_TANK_CAL          
 J208                                  5.723843  PEAKDAY_FROM_TANK_CAL          
 J2080                                 0.327077  PEAKDAY_FROM_TANK_CAL          
 J2082                                 2.943691  PEAKDAY_FROM_TANK_CAL          
 J2084                                 3.434306  PEAKDAY_FROM_TANK_CAL          
 J2086                                 3.597844  PEAKDAY_FROM_TANK_CAL          
 J2088                                 0.163538  PEAKDAY_FROM_TANK_CAL          
 J2090                                 4.742613  PEAKDAY_FROM_TANK_CAL          
 J2092                                 2.780152  PEAKDAY_FROM_TANK_CAL          
 J2094                                 2.125999  PEAKDAY_FROM_TANK_CAL          
 J2096                                15.863223  PEAKDAY_FROM_TANK_CAL          
 J2098                                 0.000000  PEAKDAY_FROM_TANK_CAL          
 J210                                  0.000000  PEAKDAY_FROM_TANK_CAL          
 J2100                                 0.000000  PEAKDAY_FROM_TANK_CAL          
 J2104                                 0.000000  PEAKDAY_FROM_TANK_CAL          
 J2108                                 0.000000  PEAKDAY_FROM_TANK_CAL          
 J2110                                 0.000000  PEAKDAY_FROM_TANK_CAL          
 J2112                                 0.000000  PEAKDAY_FROM_TANK_CAL          
 J2114                                 0.000000  PEAKDAY_FROM_TANK_CAL          
 J2124                                 7.686304  PEAKDAY_FROM_TANK_CAL          
 J2126                                 0.817692  PEAKDAY_FROM_TANK_CAL          
 J2128                                 0.654154  PEAKDAY_FROM_TANK_CAL          
 J2130                                 7.032150  PEAKDAY_FROM_TANK_CAL          
 J2132                                 5.069690  PEAKDAY_FROM_TANK_CAL          
 J2134                                 0.490615  PEAKDAY_FROM_TANK_CAL          
 J2136                                 0.654154  PEAKDAY_FROM_TANK_CAL          
 J2138                                 0.000000  PEAKDAY_FROM_TANK_CAL          
 J214                                  0.000000  PEAKDAY_FROM_TANK_CAL          
 J2140                                 0.163538  PEAKDAY_FROM_TANK_CAL          
 J216                                  0.000000  PEAKDAY_FROM_TANK_CAL          
 J218                                  0.163538  PEAKDAY_FROM_TANK_CAL          
 J2182                                 0.000000  PEAKDAY_FROM_TANK_CAL          
 J2184                                 0.000000  PEAKDAY_FROM_TANK_CAL          
 J2188                                 0.654154  PEAKDAY_FROM_TANK_CAL          
 J2190                                 1.308307  PEAKDAY_FROM_TANK_CAL          
 J2192                                 0.327077  PEAKDAY_FROM_TANK_CAL          
 J2194                                 2.125999  PEAKDAY_FROM_TANK_CAL          
 J2196                                16.353838  PEAKDAY_FROM_TANK_CAL          
 J22                                   7.849842  PEAKDAY_FROM_TANK_CAL          
 J220                                  7.195689  PEAKDAY_FROM_TANK_CAL          
 J2206                                 0.490615  PEAKDAY_FROM_TANK_CAL          
 J2210                                 0.163538  PEAKDAY_FROM_TANK_CAL          
 J2212                                31.235831  PEAKDAY_FROM_TANK_CAL          
 J2214                                 0.000000  PEAKDAY_FROM_TANK_CAL          
 J2216                                 0.000000  PEAKDAY_FROM_TANK_CAL          
 J2218                                 0.000000  PEAKDAY_FROM_TANK_CAL          
 J222                                  4.088459  PEAKDAY_FROM_TANK_CAL          
 J2222                                 0.000000  PEAKDAY_FROM_TANK_CAL          
 J2226                                 0.000000  PEAKDAY_FROM_TANK_CAL          
 J2232                                 0.000000  PEAKDAY_FROM_TANK_CAL          
 J2234                                 0.000000  PEAKDAY_FROM_TANK_CAL          
 J224                                  1.144769  PEAKDAY_FROM_TANK_CAL          
 J2242                                 0.000000  PEAKDAY_FROM_TANK_CAL          
 J2246                                 0.000000  PEAKDAY_FROM_TANK_CAL          
 J2248                                 0.000000  PEAKDAY_FROM_TANK_CAL          
 J2250                                 0.000000  PEAKDAY_FROM_TANK_CAL          
 J2252                                 0.000000  PEAKDAY_FROM_TANK_CAL          
 J2258                                 0.000000  PEAKDAY_FROM_TANK_CAL          
 J226                                 14.554916  PEAKDAY_FROM_TANK_CAL          
 J2260                                 0.000000  PEAKDAY_FROM_TANK_CAL          
 J2264                                 0.000000  PEAKDAY_FROM_TANK_CAL          
 J2266                                 0.000000  PEAKDAY_FROM_TANK_CAL          
 J2274                                 0.000000  PEAKDAY_FROM_TANK_CAL          
 J2276                                 0.000000  PEAKDAY_FROM_TANK_CAL          
 J2278                                 0.000000  PEAKDAY_FROM_TANK_CAL          
 J228                                  5.396767  PEAKDAY_FROM_TANK_CAL          
 J2280                                 0.000000  PEAKDAY_FROM_TANK_CAL          
 J2282                                 0.000000  PEAKDAY_FROM_TANK_CAL          
 J2284                                 0.000000  PEAKDAY_FROM_TANK_CAL          
 J2286                                 0.000000  PEAKDAY_FROM_TANK_CAL          
 J2290                                 0.000000  PEAKDAY_FROM_TANK_CAL          
 J230                                  7.359227  PEAKDAY_FROM_TANK_CAL          
 J2306                                 0.000000  PEAKDAY_FROM_TANK_CAL          
 J2308                                 0.000000  PEAKDAY_FROM_TANK_CAL          
 J2310                                 0.000000  PEAKDAY_FROM_TANK_CAL          
 J232                                  7.195689  PEAKDAY_FROM_TANK_CAL          
 J2322                                 0.000000  PEAKDAY_FROM_TANK_CAL          
 J2324                                 0.000000  PEAKDAY_FROM_TANK_CAL          
 J2326                                 0.000000  PEAKDAY_FROM_TANK_CAL          
 J2330                                 0.327077  PEAKDAY_FROM_TANK_CAL          
 J2332                                 0.000000  PEAKDAY_FROM_TANK_CAL          
 J2334                                 6.050920  PEAKDAY_FROM_TANK_CAL          
 J2336                                 0.000000  PEAKDAY_FROM_TANK_CAL          
 J2338                                 0.000000  PEAKDAY_FROM_TANK_CAL          
 J234                                  0.327077  PEAKDAY_FROM_TANK_CAL          
 J2340                                 0.000000  PEAKDAY_FROM_TANK_CAL          
 J2342                                 0.000000  PEAKDAY_FROM_TANK_CAL          
 J2344                                 0.000000  PEAKDAY_FROM_TANK_CAL          
 J2346                                 0.000000  PEAKDAY_FROM_TANK_CAL          
 J2348                                 3.924921  PEAKDAY_FROM_TANK_CAL          
 J2350                                 0.000000  PEAKDAY_FROM_TANK_CAL          
 J2352                                 0.490615  PEAKDAY_FROM_TANK_CAL          
 J2354                                 0.000000  PEAKDAY_FROM_TANK_CAL          
 J2356                                 2.780152  PEAKDAY_FROM_TANK_CAL          
 J236                                  3.107229  PEAKDAY_FROM_TANK_CAL          
 J2360                                 0.000000  PEAKDAY_FROM_TANK_CAL          
 J2366                                 0.000000  PEAKDAY_FROM_TANK_CAL          
 J2368                                 0.817692  PEAKDAY_FROM_TANK_CAL          
 J2370                                 0.000000  PEAKDAY_FROM_TANK_CAL          
 J2372                                 0.000000  PEAKDAY_FROM_TANK_CAL          
 J2374                                 0.000000  PEAKDAY_FROM_TANK_CAL          
 J2376                                 0.000000  PEAKDAY_FROM_TANK_CAL          
 J2378                                 0.000000  PEAKDAY_FROM_TANK_CAL          
 J238                                  0.000000  PEAKDAY_FROM_TANK_CAL          
 J2380                                 0.000000  PEAKDAY_FROM_TANK_CAL          
 J2382                                 0.000000  PEAKDAY_FROM_TANK_CAL          
 J2384                                 2.780152  PEAKDAY_FROM_TANK_CAL          
 J2386                                 0.000000  PEAKDAY_FROM_TANK_CAL          
 J24                                   0.163538  PEAKDAY_FROM_TANK_CAL          
 J240                                  1.798922  PEAKDAY_FROM_TANK_CAL          
 J2412                                 5.396767  PEAKDAY_FROM_TANK_CAL          
 J2416                                11.611225  PEAKDAY_FROM_TANK_CAL          
 J2418                                 0.654154  PEAKDAY_FROM_TANK_CAL          
 J242                                  1.144769  PEAKDAY_FROM_TANK_CAL          
 J2420                                 1.144769  PEAKDAY_FROM_TANK_CAL          
 J2422                                 0.000000  PEAKDAY_FROM_TANK_CAL          
 J2424                                 2.616614  PEAKDAY_FROM_TANK_CAL          
 J2428                                 1.471845  PEAKDAY_FROM_TANK_CAL          
 J2432                                 0.000000  PEAKDAY_FROM_TANK_CAL          
 J2434                                 0.000000  PEAKDAY_FROM_TANK_CAL          
 J2436                                 3.107229  PEAKDAY_FROM_TANK_CAL          
 J2438                                 0.000000  PEAKDAY_FROM_TANK_CAL          
 J244                                  0.981230  PEAKDAY_FROM_TANK_CAL          
 J2440                                 0.000000  PEAKDAY_FROM_TANK_CAL          
 J2442                                 0.000000  PEAKDAY_FROM_TANK_CAL          
 J2444                                 0.000000  PEAKDAY_FROM_TANK_CAL          
 J2450                                 0.000000  PEAKDAY_FROM_TANK_CAL          
 J2454                                 0.000000  PEAKDAY_FROM_TANK_CAL          
 J246                                  5.560305  PEAKDAY_FROM_TANK_CAL          
 J2460                                 1.144769  PEAKDAY_FROM_TANK_CAL          
 J2476                                 0.000000  PEAKDAY_FROM_TANK_CAL          
 J2478                                 0.000000  PEAKDAY_FROM_TANK_CAL          
 J248                                  0.000000  PEAKDAY_FROM_TANK_CAL          
 J2480                                 0.000000  PEAKDAY_FROM_TANK_CAL          
 J2482                                 2.289537  PEAKDAY_FROM_TANK_CAL          
 J2486                                 0.000000  PEAKDAY_FROM_TANK_CAL          
 J2488                                 0.000000  PEAKDAY_FROM_TANK_CAL          
 J2492                                 0.000000  PEAKDAY_FROM_TANK_CAL          
 J2494                                 0.981230  PEAKDAY_FROM_TANK_CAL          
 J2496                                 0.000000  PEAKDAY_FROM_TANK_CAL          
 J2498                                 6.705074  PEAKDAY_FROM_TANK_CAL          
 J250                                  0.817692  PEAKDAY_FROM_TANK_CAL          
 J2500                                 0.000000  PEAKDAY_FROM_TANK_CAL          
 J2506                                 5.887382  PEAKDAY_FROM_TANK_CAL          
 J2508                                 0.163538  PEAKDAY_FROM_TANK_CAL          
 J2512                                 0.000000  PEAKDAY_FROM_TANK_CAL          
 J2514                                 0.000000  PEAKDAY_FROM_TANK_CAL          
 J2516                                 0.000000  PEAKDAY_FROM_TANK_CAL          
 J252                                  1.962461  PEAKDAY_FROM_TANK_CAL          
 J2532                                 0.000000  PEAKDAY_FROM_TANK_CAL          
 J2536                                 0.000000  PEAKDAY_FROM_TANK_CAL          
 J2538                                 0.000000  PEAKDAY_FROM_TANK_CAL          
 J254                                  3.270768  PEAKDAY_FROM_TANK_CAL          
 J2542                                 6.050920  PEAKDAY_FROM_TANK_CAL          
 J2544                                 0.000000  PEAKDAY_FROM_TANK_CAL          
 J2552                                 0.490615  PEAKDAY_FROM_TANK_CAL          
 J2554                                 0.163538  PEAKDAY_FROM_TANK_CAL          
 J2558                                 0.000000  PEAKDAY_FROM_TANK_CAL          
 J256                                  2.780152  PEAKDAY_FROM_TANK_CAL          
 J2568                                 0.817692  PEAKDAY_FROM_TANK_CAL          
 J2570                                 0.000000  PEAKDAY_FROM_TANK_CAL          
 J2572                                 0.163538  PEAKDAY_FROM_TANK_CAL          
 J2574                                 0.000000  PEAKDAY_FROM_TANK_CAL          
 J2576                                 0.000000  PEAKDAY_FROM_TANK_CAL          
 J2578                                 0.000000  PEAKDAY_FROM_TANK_CAL          
 J258                                  2.616614  PEAKDAY_FROM_TANK_CAL          
 J2582                                 0.000000  PEAKDAY_FROM_TANK_CAL          
 J2592                                 0.000000  PEAKDAY_FROM_TANK_CAL          
 J2596                                 2.943691  PEAKDAY_FROM_TANK_CAL          
 J26                                   0.000000  PEAKDAY_FROM_TANK_CAL          
 J260                                  1.635384  PEAKDAY_FROM_TANK_CAL          
 J2616                                 3.107229  PEAKDAY_FROM_TANK_CAL          
 J2618                                 0.000000  PEAKDAY_FROM_TANK_CAL          
 J262                                  3.761383  PEAKDAY_FROM_TANK_CAL          
 J2620                                 2.780152  PEAKDAY_FROM_TANK_CAL          
 J2622                                15.372608  PEAKDAY_FROM_TANK_CAL          
 J2624                                11.774763  PEAKDAY_FROM_TANK_CAL          
 J2626                                49.715668  PEAKDAY_FROM_TANK_CAL          
 J2628                                 0.000000  PEAKDAY_FROM_TANK_CAL          
 J2630                                 0.000000  PEAKDAY_FROM_TANK_CAL          
 J2636                                 0.000000  PEAKDAY_FROM_TANK_CAL          
 J264                                  1.635384  PEAKDAY_FROM_TANK_CAL          
 J2640                                 0.000000  PEAKDAY_FROM_TANK_CAL          
 J266                                  0.000000  PEAKDAY_FROM_TANK_CAL          
 J268                                  9.975841  PEAKDAY_FROM_TANK_CAL          
 J270                                  4.906151  PEAKDAY_FROM_TANK_CAL          
 J272                                  0.981230  PEAKDAY_FROM_TANK_CAL          
 J274                                  5.887382  PEAKDAY_FROM_TANK_CAL          
 J2752                                 0.000000  PEAKDAY_FROM_TANK_CAL          
 J2754                                 0.000000  PEAKDAY_FROM_TANK_CAL          
 J2756                                 0.000000  PEAKDAY_FROM_TANK_CAL          
 J276                                  2.780152  PEAKDAY_FROM_TANK_CAL          
 J278                                  2.616614  PEAKDAY_FROM_TANK_CAL          
 J28                                   0.000000  PEAKDAY_FROM_TANK_CAL          
 J280                                  0.327077  PEAKDAY_FROM_TANK_CAL          
 J2806                                 0.000000  PEAKDAY_FROM_TANK_CAL          
 J2808                                 0.000000  PEAKDAY_FROM_TANK_CAL          
 J2810                                 0.000000  PEAKDAY_FROM_TANK_CAL          
 J2812                                 0.000000  PEAKDAY_FROM_TANK_CAL          
 J2814                                 0.000000  PEAKDAY_FROM_TANK_CAL          
 J2816                                 0.000000  PEAKDAY_FROM_TANK_CAL          
 J2818                                 0.000000  PEAKDAY_FROM_TANK_CAL          
 J282                                  2.943691  PEAKDAY_FROM_TANK_CAL          
 J2820                                 0.000000  PEAKDAY_FROM_TANK_CAL          
 J284                                  1.798922  PEAKDAY_FROM_TANK_CAL          
 J2846                                 0.000000  PEAKDAY_FROM_TANK_CAL          
 J2852                                 0.000000  PEAKDAY_FROM_TANK_CAL          
 J286                                 10.302918  PEAKDAY_FROM_TANK_CAL          
 J2860                                 0.000000  PEAKDAY_FROM_TANK_CAL          
 J2862                                 0.000000  PEAKDAY_FROM_TANK_CAL          
 J2868                                 0.000000  PEAKDAY_FROM_TANK_CAL          
 J2878                                 0.000000  PEAKDAY_FROM_TANK_CAL          
 J288                                  0.000000  PEAKDAY_FROM_TANK_CAL          
 J2880                                 0.000000  PEAKDAY_FROM_TANK_CAL          
 J2886                                 0.000000  PEAKDAY_FROM_TANK_CAL          
 J2888                                 0.000000  PEAKDAY_FROM_TANK_CAL          
 J2890                                 0.000000  PEAKDAY_FROM_TANK_CAL          
 J2892                                 0.000000  PEAKDAY_FROM_TANK_CAL          
 J2894                                 0.000000  PEAKDAY_FROM_TANK_CAL          
 J2898                                 0.000000  PEAKDAY_FROM_TANK_CAL          
 J290                                  3.434306  PEAKDAY_FROM_TANK_CAL          
 J2900                                 0.000000  PEAKDAY_FROM_TANK_CAL          
 J2902                                 0.000000  PEAKDAY_FROM_TANK_CAL          
 J2904                                 0.000000  PEAKDAY_FROM_TANK_CAL          
 J292                                  0.981230  PEAKDAY_FROM_TANK_CAL          
 J294                                  0.000000  PEAKDAY_FROM_TANK_CAL          
 J296                                  0.817692  PEAKDAY_FROM_TANK_CAL          
 J298                                  3.597844  PEAKDAY_FROM_TANK_CAL          
 J30                                   0.000000  PEAKDAY_FROM_TANK_CAL          
 J300                                  0.163538  PEAKDAY_FROM_TANK_CAL          
 J302                                  3.107229  PEAKDAY_FROM_TANK_CAL          
 J304                                  3.434306  PEAKDAY_FROM_TANK_CAL          
 J306                                  0.000000  PEAKDAY_FROM_TANK_CAL          
 J308                                  0.654154  PEAKDAY_FROM_TANK_CAL          
 J310                                  0.327077  PEAKDAY_FROM_TANK_CAL          
 J312                                  0.163538  PEAKDAY_FROM_TANK_CAL          
 J314                                  0.327077  PEAKDAY_FROM_TANK_CAL          
 J316                                  0.817692  PEAKDAY_FROM_TANK_CAL          
 J318                                  0.817692  PEAKDAY_FROM_TANK_CAL          
 J32                                   2.780152  PEAKDAY_FROM_TANK_CAL          
 J320                                  0.981230  PEAKDAY_FROM_TANK_CAL          
 J322                                  0.981230  PEAKDAY_FROM_TANK_CAL          
 J324                                  7.359227  PEAKDAY_FROM_TANK_CAL          
 J326                                  0.000000  PEAKDAY_FROM_TANK_CAL          
 J328                                  0.163538  PEAKDAY_FROM_TANK_CAL          
 J330                                  0.000000  PEAKDAY_FROM_TANK_CAL          
 J332                                  6.541535  PEAKDAY_FROM_TANK_CAL          
 J334                                  2.125999  PEAKDAY_FROM_TANK_CAL          
 J336                                  9.648764  PEAKDAY_FROM_TANK_CAL          
 J338                                  4.088459  PEAKDAY_FROM_TANK_CAL          
 J34                                   0.000000  PEAKDAY_FROM_TANK_CAL          
 J340                                  0.000000  PEAKDAY_FROM_TANK_CAL          
 J342                                  3.107229  PEAKDAY_FROM_TANK_CAL          
 J344                                  0.000000  PEAKDAY_FROM_TANK_CAL          
 J346                                  0.000000  PEAKDAY_FROM_TANK_CAL          
 J348                                  0.000000  PEAKDAY_FROM_TANK_CAL          
 J350                                  1.144769  PEAKDAY_FROM_TANK_CAL          
 J352                                  5.723843  PEAKDAY_FROM_TANK_CAL          
 J354                                  0.000000  PEAKDAY_FROM_TANK_CAL          
 J356                                  7.359227  PEAKDAY_FROM_TANK_CAL          
 J358                                  6.050920  PEAKDAY_FROM_TANK_CAL          
 J36                                   0.000000  PEAKDAY_FROM_TANK_CAL          
 J360                                  2.289537  PEAKDAY_FROM_TANK_CAL          
 J362                                  1.308307  PEAKDAY_FROM_TANK_CAL          
 J364                                  3.597844  PEAKDAY_FROM_TANK_CAL          
 J366                                  0.000000  PEAKDAY_FROM_TANK_CAL          
 J368                                  0.490615  PEAKDAY_FROM_TANK_CAL          
 J370                                  0.654154  PEAKDAY_FROM_TANK_CAL          
 J372                                  0.817692  PEAKDAY_FROM_TANK_CAL          
 J374                                  0.000000  PEAKDAY_FROM_TANK_CAL          
 J376                                  2.616614  PEAKDAY_FROM_TANK_CAL          
 J378                                  2.289537  PEAKDAY_FROM_TANK_CAL          
 J38                                   5.069690  PEAKDAY_FROM_TANK_CAL          
 J380                                  1.635384  PEAKDAY_FROM_TANK_CAL          
 J382                                  1.144769  PEAKDAY_FROM_TANK_CAL          
 J384                                  0.490615  PEAKDAY_FROM_TANK_CAL          
 J386                                  0.981230  PEAKDAY_FROM_TANK_CAL          
 J388                                  0.327077  PEAKDAY_FROM_TANK_CAL          
 J390                                  5.723843  PEAKDAY_FROM_TANK_CAL          
 J392                                  2.289537  PEAKDAY_FROM_TANK_CAL          
 J394                                  0.490615  PEAKDAY_FROM_TANK_CAL          
 J396                                  0.490615  PEAKDAY_FROM_TANK_CAL          
 J398                                 12.265379  PEAKDAY_FROM_TANK_CAL          
 J40                                   0.981230  PEAKDAY_FROM_TANK_CAL          
 J400                                  0.000000  PEAKDAY_FROM_TANK_CAL          
 J402                                  1.144769  PEAKDAY_FROM_TANK_CAL          
 J404                                  0.000000  PEAKDAY_FROM_TANK_CAL          
 J406                                  2.453076  PEAKDAY_FROM_TANK_CAL          
 J408                                  1.308307  PEAKDAY_FROM_TANK_CAL          
 J410                                  1.308307  PEAKDAY_FROM_TANK_CAL          
 J412                                  0.327077  PEAKDAY_FROM_TANK_CAL          
 J414                                  2.616614  PEAKDAY_FROM_TANK_CAL          
 J416                                  3.270768  PEAKDAY_FROM_TANK_CAL          
 J418                                  6.868612  PEAKDAY_FROM_TANK_CAL          
 J42                                   6.377997  PEAKDAY_FROM_TANK_CAL          
 J420                                  8.340457  PEAKDAY_FROM_TANK_CAL          
 J422                                  4.742613  PEAKDAY_FROM_TANK_CAL          
 J424                                  8.340457  PEAKDAY_FROM_TANK_CAL          
 J426                                  5.069690  PEAKDAY_FROM_TANK_CAL          
 J428                                  2.616614  PEAKDAY_FROM_TANK_CAL          
 J430                                  1.308307  PEAKDAY_FROM_TANK_CAL          
 J432                                  0.163538  PEAKDAY_FROM_TANK_CAL          
 J434                                  0.000000  PEAKDAY_FROM_TANK_CAL          
 J436                                 19.624606  PEAKDAY_FROM_TANK_CAL          
 J438                                  0.327077  PEAKDAY_FROM_TANK_CAL          
 J44                                   5.887382  PEAKDAY_FROM_TANK_CAL          
 J440                                 18.152760  PEAKDAY_FROM_TANK_CAL          
 J442                                 16.844453  PEAKDAY_FROM_TANK_CAL          
 J444                                  0.817692  PEAKDAY_FROM_TANK_CAL          
 J446                                  0.000000  PEAKDAY_FROM_TANK_CAL          
 J448                                  2.943691  PEAKDAY_FROM_TANK_CAL          
 J450                                  2.616614  PEAKDAY_FROM_TANK_CAL          
 J452                                  0.000000  PEAKDAY_FROM_TANK_CAL          
 J454                                  8.994611  PEAKDAY_FROM_TANK_CAL          
 J456                                  0.000000  PEAKDAY_FROM_TANK_CAL          
 J458                                  0.000000  PEAKDAY_FROM_TANK_CAL          
 J46                                   0.000000  PEAKDAY_FROM_TANK_CAL          
 J460                                  0.163538  PEAKDAY_FROM_TANK_CAL          
 J462                                  0.000000  PEAKDAY_FROM_TANK_CAL          
 J464                                  0.000000  PEAKDAY_FROM_TANK_CAL          
 J468                                  3.270768  PEAKDAY_FROM_TANK_CAL          
 J470                                  0.000000  PEAKDAY_FROM_TANK_CAL          
 J472                                  7.359227  PEAKDAY_FROM_TANK_CAL          
 J474                                  0.654154  PEAKDAY_FROM_TANK_CAL          
 J476                                  0.163538  PEAKDAY_FROM_TANK_CAL          
 J478                                  0.163538  PEAKDAY_FROM_TANK_CAL          
 J48                                   7.032150  PEAKDAY_FROM_TANK_CAL          
 J480                                  7.032150  PEAKDAY_FROM_TANK_CAL          
 J482                                  1.471845  PEAKDAY_FROM_TANK_CAL          
 J484                                  0.817692  PEAKDAY_FROM_TANK_CAL          
 J486                                  0.327077  PEAKDAY_FROM_TANK_CAL          
 J488                                 19.624606  PEAKDAY_FROM_TANK_CAL          
 J490                                  0.654154  PEAKDAY_FROM_TANK_CAL          
 J492                                  0.163538  PEAKDAY_FROM_TANK_CAL          
 J494                                  0.654154  PEAKDAY_FROM_TANK_CAL          
 J496                                  5.560305  PEAKDAY_FROM_TANK_CAL          
 J498                                  0.000000  PEAKDAY_FROM_TANK_CAL          
 J50                                   4.088459  PEAKDAY_FROM_TANK_CAL          
 J500                                  0.000000  PEAKDAY_FROM_TANK_CAL          
 J502                                  0.000000  PEAKDAY_FROM_TANK_CAL          
 J504                                  0.000000  PEAKDAY_FROM_TANK_CAL          
 J506                                  6.214458  PEAKDAY_FROM_TANK_CAL          
 J508                                  3.270768  PEAKDAY_FROM_TANK_CAL          
 J510                                  2.616614  PEAKDAY_FROM_TANK_CAL          
 J512                                  0.000000  PEAKDAY_FROM_TANK_CAL          
 J514                                  9.648764  PEAKDAY_FROM_TANK_CAL          
 J516                                  2.289537  PEAKDAY_FROM_TANK_CAL          
 J518                                  1.798922  PEAKDAY_FROM_TANK_CAL          
 J52                                   1.308307  PEAKDAY_FROM_TANK_CAL          
 J520                                  4.251998  PEAKDAY_FROM_TANK_CAL          
 J522                                  0.490615  PEAKDAY_FROM_TANK_CAL          
 J524                                 10.957071  PEAKDAY_FROM_TANK_CAL          
 J526                                  8.503996  PEAKDAY_FROM_TANK_CAL          
 J528                                  0.000000  PEAKDAY_FROM_TANK_CAL          
 J530                                  6.868612  PEAKDAY_FROM_TANK_CAL          
 J532                                 32.707676  PEAKDAY_FROM_TANK_CAL          
 J536                                 10.466456  PEAKDAY_FROM_TANK_CAL          
 J538                                  2.289537  PEAKDAY_FROM_TANK_CAL          
 J54                                   0.000000  PEAKDAY_FROM_TANK_CAL          
 J540                                 41.702287  PEAKDAY_FROM_TANK_CAL          
 J542                                 12.101840  PEAKDAY_FROM_TANK_CAL          
 J544                                 15.536146  PEAKDAY_FROM_TANK_CAL          
 J546                                 17.007992  PEAKDAY_FROM_TANK_CAL          
 J548                                  0.000000  PEAKDAY_FROM_TANK_CAL          
 J550                                  3.924921  PEAKDAY_FROM_TANK_CAL          
 J552                                  0.000000  PEAKDAY_FROM_TANK_CAL          
 J554                                  7.849842  PEAKDAY_FROM_TANK_CAL          
 J556                                 26.493218  PEAKDAY_FROM_TANK_CAL          
 J558                                  2.943691  PEAKDAY_FROM_TANK_CAL          
 J56                                  15.699684  PEAKDAY_FROM_TANK_CAL          
 J560                                  3.434306  PEAKDAY_FROM_TANK_CAL          
 J562                                 11.938302  PEAKDAY_FROM_TANK_CAL          
 J564                                  0.163538  PEAKDAY_FROM_TANK_CAL          
 J566                                  4.579075  PEAKDAY_FROM_TANK_CAL          
 J568                                 59.691509  PEAKDAY_FROM_TANK_CAL          
 J570                                  0.000000  PEAKDAY_FROM_TANK_CAL          
 J572                                  1.471845  PEAKDAY_FROM_TANK_CAL          
 J574                                 28.782755  PEAKDAY_FROM_TANK_CAL          
 J576                                  8.340457  PEAKDAY_FROM_TANK_CAL          
 J578                                 44.318901  PEAKDAY_FROM_TANK_CAL          
 J58                                   8.994611  PEAKDAY_FROM_TANK_CAL          
 J580                                 29.273370  PEAKDAY_FROM_TANK_CAL          
 J582                                  8.176919  PEAKDAY_FROM_TANK_CAL          
 J584                                 10.957071  PEAKDAY_FROM_TANK_CAL          
 J586                                 19.624606  PEAKDAY_FROM_TANK_CAL          
 J588                                  1.962461  PEAKDAY_FROM_TANK_CAL          
 J590                                 14.227839  PEAKDAY_FROM_TANK_CAL          
 J592                                  4.742613  PEAKDAY_FROM_TANK_CAL          
 J594                                  8.176919  PEAKDAY_FROM_TANK_CAL          
 J596                                  4.415536  PEAKDAY_FROM_TANK_CAL          
 J598                                  5.887382  PEAKDAY_FROM_TANK_CAL          
 J600                                  2.780152  PEAKDAY_FROM_TANK_CAL          
 J602                                  0.000000  PEAKDAY_FROM_TANK_CAL          
 J604                                  5.396767  PEAKDAY_FROM_TANK_CAL          
 J606                                 15.536146  PEAKDAY_FROM_TANK_CAL          
 J608                                 10.302918  PEAKDAY_FROM_TANK_CAL          
 J610                                  7.359227  PEAKDAY_FROM_TANK_CAL          
 J612                                  9.975841  PEAKDAY_FROM_TANK_CAL          
 J614                                  9.321688  PEAKDAY_FROM_TANK_CAL          
 J616                                 16.680915  PEAKDAY_FROM_TANK_CAL          
 J618                                 31.235831  PEAKDAY_FROM_TANK_CAL          
 J62                                  13.573686  PEAKDAY_FROM_TANK_CAL          
 J620                                 17.662145  PEAKDAY_FROM_TANK_CAL          
 J622                                 14.227839  PEAKDAY_FROM_TANK_CAL          
 J624                                 15.372608  PEAKDAY_FROM_TANK_CAL          
 J626                                  5.396767  PEAKDAY_FROM_TANK_CAL          
 J628                                 11.611225  PEAKDAY_FROM_TANK_CAL          
 J630                                  3.924921  PEAKDAY_FROM_TANK_CAL          
 J632                                  8.013381  PEAKDAY_FROM_TANK_CAL          
 J634                                  0.490615  PEAKDAY_FROM_TANK_CAL          
 J636                                  0.654154  PEAKDAY_FROM_TANK_CAL          
 J638                                  1.635384  PEAKDAY_FROM_TANK_CAL          
 J64                                   0.327077  PEAKDAY_FROM_TANK_CAL          
 J640                                  0.000000  PEAKDAY_FROM_TANK_CAL          
 J642                                 13.083070  PEAKDAY_FROM_TANK_CAL          
 J644                                  0.000000  PEAKDAY_FROM_TANK_CAL          
 J646                                  0.000000  PEAKDAY_FROM_TANK_CAL          
 J648                                  7.522765  PEAKDAY_FROM_TANK_CAL          
 J650                                  0.000000  PEAKDAY_FROM_TANK_CAL          
 J652                                  0.000000  PEAKDAY_FROM_TANK_CAL          
 J654                                  0.490615  PEAKDAY_FROM_TANK_CAL          
 J656                                  9.648764  PEAKDAY_FROM_TANK_CAL          
 J658                                  2.780152  PEAKDAY_FROM_TANK_CAL          
 J66                                   5.069690  PEAKDAY_FROM_TANK_CAL          
 J660                                  2.943691  PEAKDAY_FROM_TANK_CAL          
 J662                                  0.000000  PEAKDAY_FROM_TANK_CAL          
 J664                                  1.962461  PEAKDAY_FROM_TANK_CAL          
 J666                                  1.144769  PEAKDAY_FROM_TANK_CAL          
 J668                                  0.000000  PEAKDAY_FROM_TANK_CAL          
 J670                                 12.101840  PEAKDAY_FROM_TANK_CAL          
 J672                                  0.000000  PEAKDAY_FROM_TANK_CAL          
 J674                                  0.000000  PEAKDAY_FROM_TANK_CAL          
 J676                                 11.447687  PEAKDAY_FROM_TANK_CAL          
 J678                                  0.000000  PEAKDAY_FROM_TANK_CAL          
 J68                                   0.000000  PEAKDAY_FROM_TANK_CAL          
 J680                                 53.313512  PEAKDAY_FROM_TANK_CAL          
 J682                                  0.000000  PEAKDAY_FROM_TANK_CAL          
 J684                                  0.000000  PEAKDAY_FROM_TANK_CAL          
 J686                                  2.616614  PEAKDAY_FROM_TANK_CAL          
 J688                                  1.635384  PEAKDAY_FROM_TANK_CAL          
 J690                                  3.597844  PEAKDAY_FROM_TANK_CAL          
 J692                                  5.723843  PEAKDAY_FROM_TANK_CAL          
 J694                                  2.289537  PEAKDAY_FROM_TANK_CAL          
 J696                                  2.943691  PEAKDAY_FROM_TANK_CAL          
 J698                                  8.667534  PEAKDAY_FROM_TANK_CAL          
 J70                                   0.000000  PEAKDAY_FROM_TANK_CAL          
 J700                                 14.227839  PEAKDAY_FROM_TANK_CAL          
 J702                                  0.000000  PEAKDAY_FROM_TANK_CAL          
 J704                                  0.000000  PEAKDAY_FROM_TANK_CAL          
 J706                                  2.289537  PEAKDAY_FROM_TANK_CAL          
 J708                                  5.396767  PEAKDAY_FROM_TANK_CAL          
 J710                                  1.144769  PEAKDAY_FROM_TANK_CAL          
 J712                                  6.050920  PEAKDAY_FROM_TANK_CAL          
 J714                                 24.857834  PEAKDAY_FROM_TANK_CAL          
 J716                                 10.793533  PEAKDAY_FROM_TANK_CAL          
 J718                                  0.654154  PEAKDAY_FROM_TANK_CAL          
 J72                                   0.000000  PEAKDAY_FROM_TANK_CAL          
 J720                                  5.560305  PEAKDAY_FROM_TANK_CAL          
 J722                                 14.881993  PEAKDAY_FROM_TANK_CAL          
 J724                                  0.981230  PEAKDAY_FROM_TANK_CAL          
 J726                                  5.887382  PEAKDAY_FROM_TANK_CAL          
 J728                                  0.654154  PEAKDAY_FROM_TANK_CAL          
 J730                                  2.616614  PEAKDAY_FROM_TANK_CAL          
 J732                                  3.270768  PEAKDAY_FROM_TANK_CAL          
 J734                                  0.000000  PEAKDAY_FROM_TANK_CAL          
 J736                                  4.742613  PEAKDAY_FROM_TANK_CAL          
 J738                                  0.000000  PEAKDAY_FROM_TANK_CAL          
 J74                                   0.000000  PEAKDAY_FROM_TANK_CAL          
 J740                                  2.616614  PEAKDAY_FROM_TANK_CAL          
 J742                                  3.270768  PEAKDAY_FROM_TANK_CAL          
 J744                                  5.560305  PEAKDAY_FROM_TANK_CAL          
 J746                                  0.490615  PEAKDAY_FROM_TANK_CAL          
 J748                                  0.000000  PEAKDAY_FROM_TANK_CAL          
 J750                                  1.308307  PEAKDAY_FROM_TANK_CAL          
 J752                                  4.088459  PEAKDAY_FROM_TANK_CAL          
 J754                                  0.163538  PEAKDAY_FROM_TANK_CAL          
 J756                                  2.125999  PEAKDAY_FROM_TANK_CAL          
 J758                                  2.943691  PEAKDAY_FROM_TANK_CAL          
 J76                                   1.471845  PEAKDAY_FROM_TANK_CAL          
 J760                                  5.723843  PEAKDAY_FROM_TANK_CAL          
 J762                                  0.000000  PEAKDAY_FROM_TANK_CAL          
 J764                                  0.000000  PEAKDAY_FROM_TANK_CAL          
 J766                                  1.308307  PEAKDAY_FROM_TANK_CAL          
 J768                                 10.302918  PEAKDAY_FROM_TANK_CAL          
 J770                                 26.493218  PEAKDAY_FROM_TANK_CAL          
 J772                                  6.377997  PEAKDAY_FROM_TANK_CAL          
 J774                                  8.831073  PEAKDAY_FROM_TANK_CAL          
 J776                                  6.705074  PEAKDAY_FROM_TANK_CAL          
 J778                                  5.069690  PEAKDAY_FROM_TANK_CAL          
 J78                                   3.761383  PEAKDAY_FROM_TANK_CAL          
 J780                                  8.667534  PEAKDAY_FROM_TANK_CAL          
 J782                                 12.101840  PEAKDAY_FROM_TANK_CAL          
 J784                                 11.120610  PEAKDAY_FROM_TANK_CAL          
 J786                                  5.887382  PEAKDAY_FROM_TANK_CAL          
 J788                                  6.705074  PEAKDAY_FROM_TANK_CAL          
 J790                                 16.190300  PEAKDAY_FROM_TANK_CAL          
 J792                                 15.045531  PEAKDAY_FROM_TANK_CAL          
 J794                                  6.868612  PEAKDAY_FROM_TANK_CAL          
 J796                                 28.455678  PEAKDAY_FROM_TANK_CAL          
 J798                                  0.000000  PEAKDAY_FROM_TANK_CAL          
 J80                                   3.107229  PEAKDAY_FROM_TANK_CAL          
 J800                                  0.000000  PEAKDAY_FROM_TANK_CAL          
 J802                                 17.825683  PEAKDAY_FROM_TANK_CAL          
 J804                                  0.000000  PEAKDAY_FROM_TANK_CAL          
 J806                                  0.000000  PEAKDAY_FROM_TANK_CAL          
 J808                                 14.391377  PEAKDAY_FROM_TANK_CAL          
 J810                                  0.000000  PEAKDAY_FROM_TANK_CAL          
 J812                                  0.000000  PEAKDAY_FROM_TANK_CAL          
 J814                                  0.000000  PEAKDAY_FROM_TANK_CAL          
 J816                                 18.152760  PEAKDAY_FROM_TANK_CAL          
 J818                                  6.214458  PEAKDAY_FROM_TANK_CAL          
 J82                                   0.000000  PEAKDAY_FROM_TANK_CAL          
 J820                                  0.000000  PEAKDAY_FROM_TANK_CAL          
 J822                                  0.000000  PEAKDAY_FROM_TANK_CAL          
 J824                                  0.000000  PEAKDAY_FROM_TANK_CAL          
 J826                                  1.962461  PEAKDAY_FROM_TANK_CAL          
 J828                                 12.265379  PEAKDAY_FROM_TANK_CAL          
 J830                                  0.327077  PEAKDAY_FROM_TANK_CAL          
 J832                                  5.723843  PEAKDAY_FROM_TANK_CAL          
 J834                                 16.517376  PEAKDAY_FROM_TANK_CAL          
 J836                                  0.000000  PEAKDAY_FROM_TANK_CAL          
 J838                                  3.924921  PEAKDAY_FROM_TANK_CAL          
 J84                                   4.906151  PEAKDAY_FROM_TANK_CAL          
 J840                                  0.000000  PEAKDAY_FROM_TANK_CAL          
 J842                                  1.962461  PEAKDAY_FROM_TANK_CAL          
 J844                                  2.943691  PEAKDAY_FROM_TANK_CAL          
 J846                                 18.970452  PEAKDAY_FROM_TANK_CAL          
 J848                                  0.000000  PEAKDAY_FROM_TANK_CAL          
 J850                                  1.962461  PEAKDAY_FROM_TANK_CAL          
 J852                                  6.541535  PEAKDAY_FROM_TANK_CAL          
 J854                                  0.163538  PEAKDAY_FROM_TANK_CAL          
 J856                                 11.611225  PEAKDAY_FROM_TANK_CAL          
 J858                                  2.125999  PEAKDAY_FROM_TANK_CAL          
 J86                                   7.359227  PEAKDAY_FROM_TANK_CAL          
 J860                                  0.327077  PEAKDAY_FROM_TANK_CAL          
 J862                                  8.340457  PEAKDAY_FROM_TANK_CAL          
 J864                                  6.377997  PEAKDAY_FROM_TANK_CAL          
 J866                                 18.643375  PEAKDAY_FROM_TANK_CAL          
 J870                                 26.166141  PEAKDAY_FROM_TANK_CAL          
 J872                                  2.780152  PEAKDAY_FROM_TANK_CAL          
 J874                                  4.251998  PEAKDAY_FROM_TANK_CAL          
 J876                                  2.616614  PEAKDAY_FROM_TANK_CAL          
 J878                                  1.308307  PEAKDAY_FROM_TANK_CAL          
 J88                                   7.195689  PEAKDAY_FROM_TANK_CAL          
 J880                                  3.597844  PEAKDAY_FROM_TANK_CAL          
 J882                                  7.849842  PEAKDAY_FROM_TANK_CAL          
 J884                                  9.812303  PEAKDAY_FROM_TANK_CAL          
 J886                                  1.144769  PEAKDAY_FROM_TANK_CAL          
 J888                                  6.214458  PEAKDAY_FROM_TANK_CAL          
 J890                                  1.308307  PEAKDAY_FROM_TANK_CAL          
 J892                                 15.699684  PEAKDAY_FROM_TANK_CAL          
 J894                                  0.000000  PEAKDAY_FROM_TANK_CAL          
 J896                                  1.962461  PEAKDAY_FROM_TANK_CAL          
 J898                                  0.000000  PEAKDAY_FROM_TANK_CAL          
 J90                                   7.032150  PEAKDAY_FROM_TANK_CAL          
 J900                                 12.755994  PEAKDAY_FROM_TANK_CAL          
 J902                                  0.000000  PEAKDAY_FROM_TANK_CAL          
 J904                                  0.000000  PEAKDAY_FROM_TANK_CAL          
 J906                                  0.000000  PEAKDAY_FROM_TANK_CAL          
 J908                                  0.000000  PEAKDAY_FROM_TANK_CAL          
 J910                                  7.195689  PEAKDAY_FROM_TANK_CAL          
 J912                                  7.195689  PEAKDAY_FROM_TANK_CAL          
 J914                                  4.742613  PEAKDAY_FROM_TANK_CAL          
 J916                                  8.831073  PEAKDAY_FROM_TANK_CAL          
 J918                                  2.125999  PEAKDAY_FROM_TANK_CAL          
 J92                                   6.377997  PEAKDAY_FROM_TANK_CAL          
 J920                                  3.597844  PEAKDAY_FROM_TANK_CAL          
 J922                                 14.064301  PEAKDAY_FROM_TANK_CAL          
 J924                                  8.831073  PEAKDAY_FROM_TANK_CAL          
 J926                                  4.088459  PEAKDAY_FROM_TANK_CAL          
 J928                                  0.000000  PEAKDAY_FROM_TANK_CAL          
 J930                                  0.000000  PEAKDAY_FROM_TANK_CAL          
 J932                                  1.471845  PEAKDAY_FROM_TANK_CAL          
 J934                                  0.000000  PEAKDAY_FROM_TANK_CAL          
 J936                                  1.962461  PEAKDAY_FROM_TANK_CAL          
 J938                                  5.560305  PEAKDAY_FROM_TANK_CAL          
 J94                                  11.774763  PEAKDAY_FROM_TANK_CAL          
 J940                                  3.761383  PEAKDAY_FROM_TANK_CAL          
 J942                                  1.635384  PEAKDAY_FROM_TANK_CAL          
 J944                                  0.490615  PEAKDAY_FROM_TANK_CAL          
 J946                                  0.654154  PEAKDAY_FROM_TANK_CAL          
 J948                                  2.125999  PEAKDAY_FROM_TANK_CAL          
 J950                                 46.281362  PEAKDAY_FROM_TANK_CAL          
 J952                                 13.900762  PEAKDAY_FROM_TANK_CAL          
 J954                                 33.525368  PEAKDAY_FROM_TANK_CAL          
 J956                                 10.466456  PEAKDAY_FROM_TANK_CAL          
 J958                                 11.938302  PEAKDAY_FROM_TANK_CAL          
 J96                                   6.214458  PEAKDAY_FROM_TANK_CAL          
 J960                                 12.428917  PEAKDAY_FROM_TANK_CAL          
 J962                                 22.731835  PEAKDAY_FROM_TANK_CAL          
 J964                                  6.050920  PEAKDAY_FROM_TANK_CAL          
 J966                                  4.415536  PEAKDAY_FROM_TANK_CAL          
 J968                                  7.686304  PEAKDAY_FROM_TANK_CAL          
 J970                                  1.962461  PEAKDAY_FROM_TANK_CAL          
 J972                                  0.000000  PEAKDAY_FROM_TANK_CAL          
 J974                                  5.069690  PEAKDAY_FROM_TANK_CAL          
 J976                                  0.000000  PEAKDAY_FROM_TANK_CAL          
 J978                                  0.000000  PEAKDAY_FROM_TANK_CAL          
 J98                                   3.924921  PEAKDAY_FROM_TANK_CAL          
 J980                                  0.163538  PEAKDAY_FROM_TANK_CAL          
 J982                                  6.541535  PEAKDAY_FROM_TANK_CAL          
 J984                                 14.718454  PEAKDAY_FROM_TANK_CAL          
 J986                                  4.579075  PEAKDAY_FROM_TANK_CAL          
 J988                                  4.742613  PEAKDAY_FROM_TANK_CAL          
 J990                                  4.088459  PEAKDAY_FROM_TANK_CAL          
 J992                                  0.490615  PEAKDAY_FROM_TANK_CAL          
 J994                                  0.000000  PEAKDAY_FROM_TANK_CAL          
 J996                                  3.924921  PEAKDAY_FROM_TANK_CAL          
 J998                                  6.050920  PEAKDAY_FROM_TANK_CAL          
 PMP_BOOSTER1_NU                       0.000000  PEAKDAY_FROM_TANK_CAL          
 PMP_BOOSTER1_ND                       0.000000  PEAKDAY_FROM_TANK_CAL          
 PMP_BOOSTER2_NU                       0.000000  PEAKDAY_FROM_TANK_CAL          
 PMP_BOOSTER2_ND                       0.000000  PEAKDAY_FROM_TANK_CAL          
 PMP_CARNESECCA_NU                     0.000000  PEAKDAY_FROM_TANK_CAL          
 PMP_CARNESECCA_ND                     0.000000  PEAKDAY_FROM_TANK_CAL          
 PMP_CROWD_NU                          0.000000  PEAKDAY_FROM_TANK_CAL          
 PMP_CROWD_ND                          0.000000  PEAKDAY_FROM_TANK_CAL          
 PMP_SEAL_NU                           0.000000  PEAKDAY_FROM_TANK_CAL          
 PMP_SEAL_ND                           0.000000  PEAKDAY_FROM_TANK_CAL          
 PMP_WESTWOOD_NU                       0.000000  PEAKDAY_FROM_TANK_CAL          
 PMP_WESTWOOD_ND                       0.000000  PEAKDAY_FROM_TANK_CAL          
 CONTROL_MAPLEBENCH_NU                 0.000000  PEAKDAY_FROM_TANK_CAL          
 CONTROL_MAPLEBENCH_ND                 0.000000  PEAKDAY_FROM_TANK_CAL          
 PRV_400N-Z3_NU                        0.000000  PEAKDAY_FROM_TANK_CAL          
 PRV_400N-Z3_ND                        0.000000  PEAKDAY_FROM_TANK_CAL          
 PRV_MAPLE-Z2_LOWERTANK_NU             0.000000  PEAKDAY_FROM_TANK_CAL          
 PRV_MAPLE-Z2_LOWERTANK_ND             0.000000  PEAKDAY_FROM_TANK_CAL          
 PRV_MAPLE-Z3_LOWERTANKS_NU            0.000000  PEAKDAY_FROM_TANK_CAL          
 PRV_MAPLE-Z3_LOWERTANKS_ND            0.000000  PEAKDAY_FROM_TANK_CAL          
 PRV_MAPLECANYON_NU                    0.000000  PEAKDAY_FROM_TANK_CAL          
 PRV_MAPLECANYON_ND                    0.000000  PEAKDAY_FROM_TANK_CAL          
 PRV_Z2-Z1_1600N_NU                    0.000000  PEAKDAY_FROM_TANK_CAL          
 PRV_Z2-Z1_1600N_ND                    0.000000  PEAKDAY_FROM_TANK_CAL          
 PRV_Z2-Z1_1600S_NU                    0.000000  PEAKDAY_FROM_TANK_CAL          
 PRV_Z2-Z1_1600S_ND                    0.000000  PEAKDAY_FROM_TANK_CAL          
 PRV_Z2-Z1_400N_NU                     0.000000  PEAKDAY_FROM_TANK_CAL          
 PRV_Z2-Z1_400N_ND                     0.000000  PEAKDAY_FROM_TANK_CAL          
 PRV_Z2-Z1_400S_NU                     0.000000  PEAKDAY_FROM_TANK_CAL          
 PRV_Z2-Z1_400S_ND                     0.000000  PEAKDAY_FROM_TANK_CAL          
 PRV_Z2-Z1_800W_2_NU                   0.000000  PEAKDAY_FROM_TANK_CAL          
 PRV_Z2-Z1_800W_2_ND                   0.000000  PEAKDAY_FROM_TANK_CAL          
 PRV_Z2-Z1_LOWERTWINHOLLOW_NU          0.000000  PEAKDAY_FROM_TANK_CAL          
 PRV_Z2-Z1_LOWERTWINHOLLOW_ND          0.000000  PEAKDAY_FROM_TANK_CAL          
 PRV_Z2-Z1_SOUTHMAIN_NU                0.000000  PEAKDAY_FROM_TANK_CAL          
 PRV_Z2-Z1_SOUTHMAIN_ND                0.000000  PEAKDAY_FROM_TANK_CAL          
 PRV_Z2-Z1_VILLAGE_NU                  0.000000  PEAKDAY_FROM_TANK_CAL          
 PRV_Z2-Z1_VILLAGE_ND                  0.000000  PEAKDAY_FROM_TANK_CAL          
 PRV_Z3-Z2_1600S_NU                    0.000000  PEAKDAY_FROM_TANK_CAL          
 PRV_Z3-Z2_1600S_ND                    0.000000  PEAKDAY_FROM_TANK_CAL          
 PRV_Z3-Z2_850N1800E_NU                0.000000  PEAKDAY_FROM_TANK_CAL          
 PRV_Z3-Z2_850N1800E_ND                0.000000  PEAKDAY_FROM_TANK_CAL          
 PRV_Z3-Z2_BENCH_NU                    0.000000  PEAKDAY_FROM_TANK_CAL          
 PRV_Z3-Z2_BENCH_ND                    0.000000  PEAKDAY_FROM_TANK_CAL          
 PRV_Z3-Z2_EAGLECOURT_NU               0.000000  PEAKDAY_FROM_TANK_CAL          
 PRV_Z3-Z2_EAGLECOURT_ND               0.000000  PEAKDAY_FROM_TANK_CAL          
 PRV_Z3-Z2_HIDDENNORTH_NU              0.000000  PEAKDAY_FROM_TANK_CAL          
 PRV_Z3-Z2_HIDDENNORTH_ND              0.000000  PEAKDAY_FROM_TANK_CAL          
 PRV_Z3-Z2_VILLAGE_NU                  0.000000  PEAKDAY_FROM_TANK_CAL          
 PRV_Z3-Z2_VILLAGE_ND                  0.000000  PEAKDAY_FROM_TANK_CAL          

[EMITTERS]
 J100                                130.000000

[STATUS]
 P1001                           closed
 P1309-1600N                     closed
 P2199-Z2-Z1-MAPLE               closed
 P2203-1200E                     closed
 P2255                           closed
 PMP_BOOSTER1                    closed
 PMP_BOOSTER2                    closed
 PMP_SEAL                        closed
PRV_MAPLECANYON                 closed
 PRV_Z2-Z1_800W_2                open

[PATTERNS]
 CONSTANT                              1.0000
 FIRE_2-HR                             1.0000       1.0000       0.0000       0.0000       0.0000       0.0000
 FIRE_2-HR                             0.0000       0.0000       0.0000       0.0000       0.0000       0.0000
 FIRE_2-HR                             0.0000       0.0000       0.0000       0.0000       0.0000       0.0000
 FIRE_2-HR                             0.0000       0.0000       0.0000       0.0000       0.0000       0.0000
 FIRE_4-HR                             1.0000       1.0000       1.0000       1.0000       0.0000       0.0000
 FIRE_4-HR                             0.0000       0.0000       0.0000       0.0000       0.0000       0.0000
 FIRE_4-HR                             0.0000       0.0000       0.0000       0.0000       0.0000       0.0000
 FIRE_4-HR                             0.0000       0.0000       0.0000       0.0000       0.0000       0.0000
;PEAK_DAY_FROM_TANK_CAL scaled to reduce buildout demands for
 INDOOR_INTERIM                        0.3266       0.3430       0.3593       0.3756       0.3920       0.4246
 INDOOR_INTERIM                        0.4573       0.5226       0.5553       0.5226       0.4246       0.3266
 INDOOR_INTERIM                        0.2940       0.2613       0.2286       0.2286       0.2286       0.1960
 INDOOR_INTERIM                        0.1960       0.1960       0.1960       0.2286       0.2613       0.2940
;Demand pattern with a multiplier of 0
 NO_DEMAND                             0.0000
;Outdoor demands
 OUTDOOR_DIURNAL                       1.4000       1.3000       1.3000       1.3000       1.5000       1.7000
 OUTDOOR_DIURNAL                       1.6000       1.4000       1.2000       1.0000       0.8000       0.6000
 OUTDOOR_DIURNAL                       0.5000       0.3100       0.3000       0.3000       0.3500       0.4500
 OUTDOOR_DIURNAL                       0.5000       0.7000       1.0000       1.4000       1.5000       1.4000
;Outdoor demands reduced to match interim model
 OUTDOOR_DIURNAL_INTERIM               0.8079       0.7502       0.7502       0.7502       0.8657       0.9811
 OUTDOOR_DIURNAL_INTERIM               0.9234       0.8079       0.6925       0.5771       0.4617       0.3463
 OUTDOOR_DIURNAL_INTERIM               0.2886       0.1789       0.1731       0.1731       0.2020       0.2597
 OUTDOOR_DIURNAL_INTERIM               0.2886       0.4040       0.5771       0.8079       0.8657       0.8079
;est curve from tank levels - peak 2, rev low demand times
 PEAKDAY_FROM_TANK                     1.0000       0.8000       0.6000       0.8000       1.1000       1.3000
 PEAKDAY_FROM_TANK                     1.6000       1.8000       2.0000       1.8000       1.6000       1.4000
 PEAKDAY_FROM_TANK                     1.2000       1.0000       0.7000       0.5000       0.5000       0.4000
 PEAKDAY_FROM_TANK                     0.4000       0.5000       0.6000       0.7000       0.8000       0.9000
;use tank levels, smoothed, revise low demand times
 PEAKDAY_FROM_TANK_2                   1.0000       0.9500       0.9000       0.9500       1.1000       1.3000
 PEAKDAY_FROM_TANK_2                   1.5000       1.8000       2.0000       1.8000       1.5000       1.2000
 PEAKDAY_FROM_TANK_2                   1.0000       0.8500       0.7000       0.6000       0.5000       0.4500
 PEAKDAY_FROM_TANK_2                   0.4000       0.5000       0.6000       0.7000       0.8000       0.9000
;use tank levels - peak 1.7, rev low dem times, match calibr
 PEAKDAY_FROM_TANK_CAL                 1.0000       1.0500       1.1000       1.1500       1.2000       1.3000
 PEAKDAY_FROM_TANK_CAL                 1.4000       1.6000       1.7000       1.6000       1.3000       1.0000
 PEAKDAY_FROM_TANK_CAL                 0.9000       0.8000       0.7000       0.7000       0.7000       0.6000
 PEAKDAY_FROM_TANK_CAL                 0.6000       0.6000       0.6000       0.7000       0.8000       0.9000
;AWWA M32 Average Day Flow Diurnal Curve (Figure 2)
 WINTER_ESTIMATED                      0.3000       0.2500       0.2000       0.2000       0.2500       0.3500
 WINTER_ESTIMATED                      0.5000       1.0000       1.2000       1.3000       1.3500       1.3500
 WINTER_ESTIMATED                      1.3000       1.2500       1.2000       1.2500       1.3000       1.4000
 WINTER_ESTIMATED                      1.5000       1.7000       1.7500       1.7000       0.9000       0.5000

[CURVES]
 BOOSTER2_5X6-11HD_1STAGE              0.0000     400.0000
 BOOSTER2_5X6-11HD_1STAGE            610.0000     380.0000
 BOOSTER2_5X6-11HD_1STAGE           1200.0000     350.8000
 BOOSTER2_5X6-11HD_1STAGE           1600.0000     310.0000
 BOOSTER2_5X6-11HD_1STAGE           1875.0000     252.0000
;Carnesecca Well pump curve from 2018 model
 CARNESECCA_2018MODEL               1000.0000     365.0000
;pump curve developed from pump test
 CARNESECCA_PUMPTEST                 379.0000     363.0000
 CARNESECCA_PUMPTEST                 603.0000     328.0000
 CARNESECCA_PUMPTEST                 853.0000     280.0000
 CARNESECCA_PUMPTEST                1104.0000     155.0000
 CARNESECCA_PUMPTEST                1200.0000       0.0000
;Carnesecca pump curve from SCADA
 CARNESECCA_SCADA                      0.0000     380.0000
 CARNESECCA_SCADA                    379.0000     363.0000
 CARNESECCA_SCADA                    603.0000     328.0000
 CARNESECCA_SCADA                    853.0000     280.0000
 CARNESECCA_SCADA                   1050.0000     198.6600
 CARNESECCA_SCADA                   1075.0000     189.4200
 CARNESECCA_SCADA                   1100.0000     173.2500
 CARNESECCA_SCADA                   1125.0000     157.0800
 CARNESECCA_SCADA                   1150.0000     136.2900
 CARNESECCA_SCADA                   1175.0000     117.8100
 CARNESECCA_SCADA                   1200.0000      99.3300
 CARNESECCA_SCADA                   1250.0000       0.0000
;pump curve developed from pump test
 CROWDCANYON_PUMPTEST                450.0000     296.0000
 CROWDCANYON_PUMPTEST                685.0000     280.0000
 CROWDCANYON_PUMPTEST                944.0000     273.0000
 CROWDCANYON_PUMPTEST               1193.0000     261.0000
 CROWDCANYON_PUMPTEST               1445.0000     249.0000
 CROWDCANYON_PUMPTEST               1700.0000     226.0000
 CROWDCANYON_PUMPTEST               2000.0000       0.0000
 SEAL_14LC_5STAGE                    200.0000     580.0000
 SEAL_14LC_5STAGE                    800.0000     518.0000
 SEAL_14LC_5STAGE                   1200.0000     475.0000
 SEAL_14LC_5STAGE                   1600.0000     420.0000
 SEAL_14LC_5STAGE                   1800.0000     387.0000
 SEAL_14LC_5STAGE                   2000.0000     340.0000
 SEAL_14LC_5STAGE                   2300.0000     250.0000
;Seal Well pump curve from 2018 model
 SEAL_2018MODEL                     1300.0000     350.0000
;pump curve developed from pump test
 SEAL_PUMPTEST                       202.0000     312.0000
 SEAL_PUMPTEST                       460.0000     289.0000
 SEAL_PUMPTEST                       700.0000     256.0000
 SEAL_PUMPTEST                       950.0000     231.0000
;Westwood pump curve from 2018 model
 WESTWOOD_2018MODEL                 1000.0000     431.0000
;pump curve developed from pump test
 WESTWOOD_PUMPTEST                   598.0000     333.0000
 WESTWOOD_PUMPTEST                   850.0000     314.0000
 WESTWOOD_PUMPTEST                  1002.0000     300.0000
 WESTWOOD_PUMPTEST                  1248.0000     282.0000
 WESTWOOD_PUMPTEST                  1500.0000     252.0000
;Westwood pump curve from 2023 SCADA
 WESTWOOD_SCADA                        0.0000     375.0000
 WESTWOOD_SCADA                      500.0000     370.0000
 WESTWOOD_SCADA                     1600.0000     345.4800
 WESTWOOD_SCADA                     1700.0000     340.8600
 WESTWOOD_SCADA                     1800.0000     327.0000
 WESTWOOD_SCADA                     1900.0000     310.8300
 WESTWOOD_SCADA                     2000.0000     290.0000
 WESTWOOD_SCADA                     2100.0000     269.2500
 WESTWOOD_SCADA                     2300.0000     180.0000
 WESTWOOD_SCADA                     2500.0000       0.0000

[CONTROLS]
 LINK P361 closed  IF NODE T4_WESTWOOD ABOVE 13.0000
 LINK PMP_CARNESECCA 0.0000 IF NODE T3_LOWERTANK ABOVE 13.5000
 LINK PMP_CARNESECCA 1.0000 IF NODE T3_LOWERTANK BELOW 10.5000
 LINK PMP_CROWD 0.0000 IF NODE T5_CROWD ABOVE 21.0000
 LINK PMP_CROWD 1.0000 IF NODE T5_CROWD BELOW 10.0000
 LINK PMP_WESTWOOD 0.0000 IF NODE T3_LOWERTANK ABOVE 13.0000
 LINK PMP_WESTWOOD 1.0000 IF NODE T3_LOWERTANK BELOW 11.0000

[RULES]
RULE RULE_BOOSTER1_ON
IF   TANK T1_MAPLE1 HEAD < 5246.0000
AND  TANK T3_LOWERTANK HEAD > 4926.0000
THEN PUMP PMP_BOOSTER1 STATUS = OPEN

RULE RULE_BOOSTER1_OFF
IF   TANK T1_MAPLE1 HEAD > 5250.0000
OR   TANK T3_LOWERTANK HEAD < 4924.0000
THEN PUMP PMP_BOOSTER1 STATUS = CLOSED


[QUALITY]

[SOURCES]

[MIXING]
 T3_LOWERTANK                    MIXED          1.0000
 T1_MAPLE1                       MIXED          1.0000
 T2_MAPLE2                       MIXED          1.0000
 T4_WESTWOOD                     MIXED          1.0000
 T5_CROWD                        MIXED          1.0000

[REACTIONS]
 ORDER  BULK            1.00
 ORDER  WALL            1
 ORDER  TANK            1.00
 GLOBAL BULK            0.000000
 GLOBAL WALL            0.000000

[ENERGY]
 GLOBAL EFFIC        70.0000
 DEMAND CHARGE       0.0000

[TIMES]
 DURATION            24:00:00
 HYDRAULIC TIMESTEP  0:15:00
 QUALITY TIMESTEP    0:06:00
 REPORT TIMESTEP     1:00:00
 REPORT START        0:00:00
 PATTERN TIMESTEP    1:00:00
 PATTERN START       0:00:00
 RULE TIMESTEP       0:06:00
 START CLOCKTIME     0:00:00
 STATISTIC           NONE

[OPTIONS]
 UNITS               GPM
 PRESSURE            PSI
 HEADLOSS            D-W
 UNBALANCED          STOP
 QUALITY             NONE
 DEMAND MULTIPLIER   1.0000
 EMITTER EXPONENT    0.5000
 VISCOSITY           1.000000
 DIFFUSIVITY         1.000000
 SPECIFIC GRAVITY    1.000000
 TRIALS              40
 ACCURACY            0.00100000
 TOLERANCE           0.00100000
 CHECKFREQ           2
 MAXCHECK            10
 DAMPLIMIT           0.00000000

[REPORT]
 PAGESIZE            0
 STATUS              FULL
 SUMMARY             NO
 ENERGY              NO
 MESSAGES            NO
 NODES               NONE
 LINKS               NONE
 Elevation           NO
 Demand              PRECISION 2
 Head                PRECISION 2
 Pressure            PRECISION 2
 Quality             NO
 Length              NO
 Diameter            NO
 Flow                PRECISION 2
 Velocity            PRECISION 2
 Headloss            PRECISION 2
 Quality             NO
 State               NO
 Setting             NO
 Reaction            NO

[COORDINATES]
 J10                             1622519.044535 7221546.143933
 J100                            1620761.956841 7220898.502840
 J1000                           1614797.168574 7217669.265532
 J1002                           1615766.734876 7220183.481960
 J1004                           1617432.570456 7220200.370706
 J1006                           1617432.598999 7220206.357899
 J1008                           1617940.391947 7220212.426128
 J1010                           1617798.888293 7220209.524559
 J1012                           1617795.887970 7220434.274766
 J1014                           1618417.191846 7220224.820132
 J1016                           1618440.003808 7221216.245643
 J1018                           1618362.668989 7219270.681949
 J102                            1620368.377248 7221520.911372
 J1020                           1618417.125901 7220214.994036
 J1022                           1618377.122044 7221571.235090
 J1024                           1618210.782154 7222598.914137
 J1026                           1618365.442606 7221985.717201
 J1028                           1617940.421146 7222004.686979
 J1030                           1617056.276917 7221492.528555
 J1032                           1617032.454458 7222839.530454
 J1034                           1616764.536031 7221490.850080
 J1036                           1616755.439920 7222836.906115
 J1038                           1616428.334931 7222177.798838
 J104                            1620387.243024 7220235.842420
 J1040                           1616403.196530 7222833.568524
 J1042                           1616767.352626 7222176.154484
 J1044                           1616035.554549 7222165.831342
 J1046                           1616064.712627 7221483.322864
 J1048                           1616009.483079 7222834.943849
 J1050                           1617440.095375 7221496.811355
 J1052                           1617452.142923 7222840.508142
 J1054                           1616095.168931 7221483.677851
 J1056                           1618383.829708 7221501.932407
 J1058                           1617781.387015 7221498.846455
 J106                            1619675.126010 7220934.538857
 J1060                           1617770.472011 7220557.639020
 J1062                           1616984.514593 7220964.651658
 J1064                           1616986.943394 7221491.929475
 J1066                           1616694.757627 7220964.130661
 J1068                           1616694.754674 7221490.120423
 J1070                           1615458.895925 7221485.743135
 J1072                           1614373.044094 7221483.489859
 J1074                           1616085.731614 7220182.991804
 J1076                           1616091.710276 7221483.637496
 J1078                           1615763.508833 7220183.485241
 J108                            1619695.118096 7220558.365397
 J1080                           1615756.595133 7220784.549984
 J1082                           1615746.058081 7221483.580738
 J1084                           1617435.620318 7221496.669951
 J1086                           1617708.912095 7219793.298029
 J1088                           1617431.545851 7219930.087126
 J1090                           1617385.995418 7219787.492923
 J1092                           1617431.030761 7219787.819038
 J1094                           1615756.100711 7220829.657505
 J1096                           1616034.982043 7220833.613862
 J1098                           1616357.045704 7220833.868783
 J110                            1619663.215273 7221050.337182
 J1100                           1615760.744403 7220516.241793
 J1102                           1615426.671252 7221485.572204
 J1104                           1615002.655040 7221483.324177
 J1106                           1614958.891020 7222159.416000
 J1108                           1614537.497178 7221484.840578
 J1110                           1615747.447185 7221827.194880
 J1112                           1613677.538924 7222170.676149
 J1114                           1616034.171349 7222179.503559
 J1116                           1614943.567232 7222517.844089
 J1118                           1615020.821998 7222522.168884
 J112                            1619695.234894 7220555.994995
 J1120                           1615125.022905 7222825.403842
 J1122                           1614533.209128 7222507.163008
 J1124                           1614535.432221 7222192.210554
 J1126                           1615751.265419 7221483.568599
 J1128                           1615710.906904 7222835.584596
 J1130                           1615455.345079 7222503.458948
 J1132                           1615708.545360 7222524.946109
 J1134                           1614998.612069 7220184.291670
 J1136                           1614997.033332 7221483.294649
 J1138                           1614169.724619 7221911.533294
 J114                            1619672.463614 7220934.558214
 J1140                           1614166.427054 7222811.193896
 J1142                           1614285.117105 7222811.040025
 J1144                           1615121.406115 7222825.340850
 J1146                           1613512.475934 7222797.642086
 J1148                           1613841.002508 7222167.682388
 J1150                           1613825.801750 7222811.635825
 J1152                           1613021.485118 7222176.217148
 J1154                           1613362.215735 7222172.857247
 J1156                           1613363.587124 7221825.990158
 J1158                           1613011.404101 7222808.460962
 J116                            1618914.512374 7220894.232507
 J1160                           1613023.330914 7222459.130952
 J1162                           1613023.217070 7222463.490195
 J1164                           1613517.506763 7222797.610590
 J1166                           1614356.565125 7220195.665663
 J1168                           1614352.653059 7221483.304164
 J1170                           1614350.780031 7220832.929808
 J1172                           1613436.696886 7220846.825122
 J1174                           1613813.771919 7220689.953060
 J1176                           1613812.523562 7220849.421245
 J1178                           1613815.592781 7220193.929446
 J118                            1618432.124231 7220890.606530
 J1180                           1614039.595942 7221168.647969
 J1182                           1614352.125829 7221218.224313
 J1184                           1615708.672000 7222835.589845
 J1186                           1619757.729847 7216953.663945
 J1188                           1619727.047166 7217554.857296
 J1190                           1619954.300976 7216955.580936
 J1192                           1619743.884074 7216953.497607
 J1194                           1619366.624658 7216957.532375
 J1196                           1619365.390081 7217561.320538
 J1198                           1619074.127212 7216592.431728
 J12                             1622518.523538 7220971.664767
 J120                            1619068.688902 7220567.543856
 J1200                           1619073.735152 7217563.619746
 J1202                           1619075.227275 7216910.145659
 J1204                           1619366.799855 7216914.655165
 J1206                           1619711.249297 7219538.714877
 J1210                           1618318.083120 7217201.739236
 J1212                           1618355.555486 7218690.002336
 J1214                           1619102.140935 7218690.479041
 J1216                           1619100.959179 7219032.733277
 J1218                           1619253.921144 7217562.111875
 J122                            1618429.343725 7220519.152221
 J1220                           1619229.860824 7218331.996490
 J1222                           1618349.085355 7217563.455048
 J1224                           1619070.189884 7217563.666990
 J1226                           1617968.553308 7219368.118433
 J1228                           1618008.941022 7219657.402960
 J1230                           1617970.576269 7219532.072830
 J1232                           1617712.411103 7219533.730307
 J1234                           1617712.433085 7219532.531162
 J1236                           1617428.665608 7219392.715825
 J1238                           1617436.908373 7213577.525684
 J124                            1619373.805418 7220544.521264
 J1240                           1617199.207077 7213802.217164
 J1242                           1617432.968093 7213802.998986
 J1244                           1609899.495627 7213366.434571
 J1246                           1610438.905637 7213861.052676
 J1248                           1610295.131647 7213301.579714
 J1250                           1610296.027970 7213273.862905
 J1252                           1610549.391637 7213282.326471
 J1254                           1610547.869002 7213318.425808
 J1256                           1610800.693627 7213300.447170
 J1258                           1610800.254980 7213333.592117
 J126                            1619373.733896 7220575.417856
 J1260                           1611011.739793 7213312.816896
 J1262                           1611010.968141 7213346.736447
 J1264                           1610360.557246 7213303.972097
 J1266                           1610694.061623 7213746.298640
 J1268                           1611141.199552 7213351.840255
 J1270                           1619991.775967 7203096.457735
 J1272                           1620094.725236 7203123.777563
 J1274                           1620594.704551 7203767.289071
 J1276                           1620798.587018 7204297.000938
 J1278                           1620798.758277 7204295.478631
 J128                            1619694.899264 7220432.932905
 J1282                           1621171.818226 7205220.882292
 J1284                           1621348.055407 7205541.959078
 J1286                           1621483.908810 7205756.202088
 J1288                           1621625.270403 7206163.771155
 J1290                           1621935.511665 7206852.766692
 J1292                           1622387.318748 7207727.308054
 J1294                           1622731.355462 7208326.836710
 J1296                           1622842.180371 7208601.218379
 J1298                           1623137.168298 7209142.219266
 J130                            1619052.608882 7220228.245650
 J1300                           1623358.614050 7209537.444853
 J1302                           1623512.466432 7209804.518138
 J1304                           1624066.732056 7210781.342956
 J1306                           1624180.345674 7211009.201096
 J1310                           1624173.941487 7210993.368779
 J1312                           1622495.440907 7210975.158841
 J1314                           1616433.146601 7212214.531691
 J1316                           1616788.814525 7212224.025438
 J1318                           1617092.695807 7212230.073654
 J132                            1619054.699429 7220567.152125
 J1320                           1616760.332955 7210909.649130
 J1322                           1617425.213187 7214219.478140
 J1324                           1618410.213185 7214223.651688
 J1326                           1618159.919395 7221500.785428
 J1328                           1618152.941718 7220896.190180
 J1330                           1618432.138010 7220887.305684
 J1332                           1616090.580685 7219522.017404
 J1334                           1616084.232929 7220182.994100
 J1336                           1615906.427510 7219491.327505
 J1338                           1616726.873704 7219522.688990
 J134                            1619029.515096 7220566.447074
 J1340                           1616580.028197 7219052.990455
 J1342                           1616583.151879 7219522.985906
 J1344                           1616240.153221 7219058.781782
 J1346                           1616230.850418 7219520.653889
 J1348                           1613092.610303 7216685.178917
 J1350                           1613081.522727 7217367.636870
 J1352                           1612578.880360 7216685.635937
 J1354                           1612579.323600 7217067.258862
 J1356                           1612107.599150 7216628.537955
 J1358                           1612372.009054 7216941.973023
 J136                            1619026.239840 7220894.855866
 J1360                           1612580.620842 7216939.245338
 J1362                           1612374.785295 7216666.380070
 J1364                           1612132.838929 7216671.595283
 J1366                           1612577.602147 7216328.209159
 J1368                           1612577.337056 7216502.671408
 J1370                           1612100.245162 7216331.574638
 J1372                           1612101.598834 7216331.562827
 J1374                           1612099.188078 7216563.051537
 J1376                           1611875.290888 7216329.874838
 J1378                           1612589.491760 7216103.094935
 J138                            1620757.911902 7220239.259080
 J1380                           1616741.482271 7219852.063988
 J1382                           1616441.736151 7219851.504278
 J1384                           1616434.174486 7220183.989505
 J1386                           1610684.741431 7213979.791940
 J1388                           1610629.440689 7214027.228525
 J1390                           1610626.606049 7214024.752480
 J1392                           1610747.689468 7214134.211578
 J1394                           1610921.374160 7214308.163658
 J1396                           1611080.430601 7214442.506565
 J1398                           1621191.227148 7221529.208216
 J14                             1623034.974933 7221546.854890
 J140                            1618417.177082 7220222.641659
 J1400                           1621188.279479 7221708.894592
 J1402                           1621317.505271 7221881.072069
 J1404                           1621466.226102 7221883.667208
 J1406                           1622179.438258 7221539.117700
 J1408                           1623073.093295 7220249.049742
 J1410                           1622758.780932 7220247.859784
 J1412                           1623049.979824 7220249.004795
 J1414                           1623020.410658 7220882.209565
 J1416                           1625568.298935 7216146.876188
 J1418                           1625861.993885 7216359.486655
 J142                            1621630.086011 7220268.633037
 J1422                           1626051.401315 7216458.656733
 J1424                           1626300.432641 7216514.415807
 J1426                           1613103.893693 7214143.008492
 J1428                           1613915.978407 7214792.807046
 J1430                           1613100.715530 7214783.620179
 J1432                           1613272.888486 7214146.055059
 J1434                           1613360.116986 7214341.463789
 J1436                           1613716.118571 7214709.186150
 J1438                           1613711.342006 7214787.126939
 J144                            1621630.626364 7220245.101260
 J1440                           1609787.337058 7213576.842286
 J1442                           1609347.372715 7213728.591327
 J1444                           1609158.618171 7214080.013852
 J1446                           1609096.461472 7214197.807580
 J1448                           1609265.218024 7214286.846444
 J1450                           1610421.181554 7216590.966022
 J1452                           1610771.277020 7217760.744680
 J1454                           1611768.915444 7218012.359006
 J1456                           1610480.470186 7217319.979157
 J1458                           1610375.659372 7217343.969266
 J146                            1623684.601587 7217562.575129
 J1462                           1619084.619973 7209828.295650
 J1464                           1618422.778572 7209593.991803
 J1466                           1619085.862424 7209949.802296
 J1468                           1618408.338517 7206718.614533
 J1470                           1618409.178410 7207496.097230
 J1472                           1618350.184106 7207496.579512
 J1474                           1620165.704097 7204866.584116
 J1476                           1618944.277406 7205547.679539
 J1478                           1614270.098434 7214813.290601
 J148                            1625874.976471 7217468.351892
 J1480                           1614444.268689 7214823.194780
 J1484                           1614445.235551 7214695.873513
 J1486                           1614443.041986 7214492.832908
 J1490                           1624174.699032 7210997.497379
 J1492                           1618406.910833 7214910.428195
 J1494                           1618885.540744 7214948.634309
 J1496                           1618887.800906 7214716.268323
 J1498                           1619189.360188 7214952.106531
 J150                            1626020.652361 7217327.554273
 J1500                           1615753.820204 7216207.690699
 J1502                           1615727.120605 7217071.203753
 J1504                           1616459.105921 7218389.686103
 J1506                           1616457.659924 7218267.870801
 J1508                           1616955.828287 7218389.918800
 J1510                           1616961.018391 7219048.441531
 J1512                           1618362.325756 7219049.025375
 J1514                           1617973.025770 7219045.325050
 J1516                           1621818.573875 7221177.413967
 J1518                           1618242.132813 7206463.379807
 J152                            1626019.354135 7217269.872630
 J1520                           1610611.219791 7212797.130570
 J1522                           1610541.558333 7212999.604529
 J1524                           1610029.431192 7212640.840805
 J1526                           1610680.531887 7212453.880157
 J1528                           1610274.234216 7215084.678985
 J1530                           1610270.044401 7215477.568127
 J1532                           1610339.240810 7216324.648470
 J1534                           1610370.682447 7213798.414601
 J1536                           1609942.452890 7213401.439094
 J1538                           1609786.451736 7213576.177647
 J154                            1626011.700279 7217262.060966
 J1540                           1610052.268070 7213825.113881
 J1542                           1610304.498973 7213978.668568
 J1544                           1609827.428661 7214928.598256
 J1546                           1609536.487182 7214772.445008
 J1548                           1611072.441001 7214446.575015
 J1550                           1612075.578873 7213908.760914
 J1552                           1613641.925188 7210870.171245
 J1554                           1613642.142202 7212124.870319
 J1556                           1613657.832306 7212317.092541
 J1558                           1613969.564077 7212132.902726
 J156                            1626021.827883 7217295.644560
 J1560                           1613989.804239 7212325.749225
 J1562                           1614438.800622 7212142.758738
 J1564                           1615151.144879 7213107.708607
 J1566                           1615336.665621 7213539.570062
 J1568                           1615138.080643 7212650.764163
 J1570                           1615769.935097 7212691.424941
 J1572                           1615138.230238 7212160.701084
 J1574                           1615771.081421 7212189.691449
 J1576                           1614767.066600 7216780.216457
 J1578                           1614568.808973 7216781.728927
 J158                            1625993.914553 7217319.521809
 J1580                           1613998.946732 7217019.109367
 J1582                           1610650.789539 7214046.264101
 J1584                           1613642.508232 7211491.395203
 J1586                           1613968.612833 7211487.364532
 J1588                           1622391.411423 7218900.424511
 J1590                           1618348.993450 7218059.523306
 J1592                           1618742.810709 7217819.937839
 J1594                           1618741.513734 7217563.352350
 J1596                           1618958.960517 7218332.807151
 J1598                           1616699.997631 7220827.957573
 J16                             1623598.917047 7221555.375870
 J1600                           1616984.755815 7220832.366392
 J1602                           1609182.174227 7215471.809625
 J1604                           1619208.963556 7206621.045830
 J1606                           1619526.395336 7206727.179148
 J1608                           1619572.410336 7205553.062402
 J1610                           1618412.844147 7213921.812105
 J1612                           1617861.796303 7213909.528957
 J1614                           1620855.534920 7204590.274588
 J1616                           1620322.070910 7205428.638110
 J162                            1626021.123488 7217320.449300
 J1620                           1628795.087474 7216416.850512
 J1626                           1626494.443736 7216795.770560
 J1628                           1624405.907436 7219022.398221
 J1630                           1622006.766345 7220248.352497
 J1632                           1622011.253211 7219782.514685
 J1634                           1609514.417376 7215542.250563
 J1636                           1612146.158456 7215524.505714
 J1638                           1611952.090301 7215249.335368
 J164                            1626008.808552 7217325.834788
 J1640                           1612816.516813 7215303.858028
 J1642                           1613098.819393 7215304.363412
 J1644                           1610412.493403 7212441.560676
 J1646                           1610318.064005 7212809.432385
 J1648                           1610038.910504 7212416.507508
 J1650                           1614030.227223 7210875.147875
 J1652                           1616869.628012 7208888.385784
 J1654                           1616873.382926 7208048.655180
 J1656                           1616871.326171 7208048.610902
 J1658                           1612344.092115 7212759.126402
 J166                            1626000.865327 7217333.261611
 J1660                           1616088.820841 7220833.868783
 J1662                           1614975.666896 7221900.767567
 J1664                           1614956.693906 7222201.940197
 J1666                           1614165.633093 7222175.645600
 J1668                           1613025.227892 7221471.419738
 J1670                           1613038.988682 7220194.533775
 J1672                           1615743.350030 7222185.008140
 J1674                           1621038.574803 7220907.895871
 J1676                           1618348.924547 7218334.913309
 J1678                           1611374.216094 7213329.646882
 J168                            1625932.562970 7217396.486222
 J1680                           1611755.289487 7212494.464869
 J1682                           1612431.722190 7213409.417495
 J1684                           1612610.768810 7213938.670296
 J1686                           1616408.586939 7208038.687024
 J1688                           1616870.063154 7208666.089150
 J1690                           1620380.916411 7213281.523230
 J1692                           1620396.364314 7212616.022625
 J1694                           1623018.371605 7210971.379915
 J1696                           1623010.298688 7210968.146408
 J1698                           1620133.738610 7204831.748228
 J170                            1625823.743962 7217504.769142
 J1700                           1625923.670526 7217387.927033
 J1702                           1617016.244071 7221953.493923
 J1704                           1617015.868637 7221935.585937
 J1706                           1617047.639139 7221936.188429
 J1708                           1622190.326211 7221989.915254
 J1710                           1614394.259040 7207218.803382
 J1712                           1619961.376633 7203098.077474
 J1714                           1622383.776083 7216261.809293
 J1716                           1621651.271839 7216264.969829
 J1718                           1621659.144380 7216264.933342
 J172                            1625858.724863 7217468.919804
 J1720                           1620726.710057 7219546.158994
 J1722                           1622437.036496 7216237.197202
 J1724                           1622425.727296 7214896.429374
 J1726                           1622606.120578 7213580.686040
 J1732                           1613073.156341 7218046.140534
 J1734                           1619197.358409 7216252.508587
 J1736                           1619223.580921 7213868.683356
 J1738                           1624995.463155 7213634.019004
 J174                            1625808.630147 7217473.413561
 J1740                           1623023.789254 7215122.262638
 J1742                           1613335.259968 7206018.783405
 J1744                           1613970.538180 7205945.469964
 J1746                           1614105.275593 7205730.500346
 J1748                           1614326.307856 7205161.704050
 J1750                           1614178.035287 7205469.846411
 J1752                           1615773.320301 7205340.215690
 J1754                           1615781.609191 7206063.521027
 J1756                           1622189.444433 7221539.673032
 J1758                           1622188.347033 7221564.566140
 J176                            1626471.201984 7216760.513084
 J1760                           1622191.533050 7221565.283987
 J1764                           1613822.063569 7221478.475105
 J1772                           1618401.924816 7215882.954800
 J1776                           1615604.369060 7209578.783025
 J1778                           1615752.961282 7216106.587555
 J178                            1625977.247920 7217324.008020
 J1780                           1616141.854861 7215905.481986
 J1782                           1617055.017405 7221709.438226
 J1784                           1622152.800188 7221893.809904
 J1786                           1614863.664504 7207435.698729
 J1788                           1624089.816984 7217565.038706
 J1790                           1624946.724719 7222111.770426
 J1792                           1622488.705028 7210742.155042
 J1794                           1613093.052888 7216467.587161
 J1796                           1609372.127535 7214341.428074
 J1798                           1609826.456077 7212635.102705
 J18                             1624577.231035 7221568.113049
 J1800                           1609939.366695 7212408.410506
 J1804                           1624520.817375 7222622.652419
 J1812                           1623487.221105 7220248.089921
 J1814                           1623571.856317 7220634.938451
 J1816                           1622914.288957 7220753.097712
 J1818                           1622839.631643 7220545.111341
 J182                            1625047.374124 7217568.116128
 J1820                           1622985.931874 7220406.248389
 J1822                           1621662.323875 7220950.851467
 J1824                           1621815.969708 7220950.851467
 J1826                           1621512.508070 7220937.487087
 J1828                           1622009.029683 7220013.367026
 J1830                           1621809.168239 7219998.624793
 J1832                           1622468.716850 7219338.642154
 J1834                           1625050.767283 7218287.866464
 J1838                           1623087.307706 7218449.572420
 J184                            1624685.143877 7217569.074131
 J1840                           1619778.120785 7219663.692791
 J1842                           1620282.462021 7219542.902310
 J1844                           1620137.495785 7219639.387235
 J1846                           1620282.461063 7219227.060846
 J1848                           1623848.440357 7217563.571215
 J1850                           1623844.093007 7217388.519180
 J1852                           1622883.570841 7217556.825524
 J1854                           1622887.893644 7217353.272507
 J1856                           1621744.592139 7217075.567067
 J1858                           1618428.283545 7217614.835731
 J186                            1624264.548918 7217566.101040
 J1860                           1618716.912062 7219033.189305
 J1862                           1618716.912018 7219112.578786
 J1864                           1617741.000559 7219023.603092
 J1866                           1617950.418962 7218889.054481
 J1868                           1617947.163754 7218616.702050
 J1870                           1618238.398225 7219048.964319
 J1872                           1618247.510976 7218865.182953
 J1874                           1618231.885976 7219348.255870
 J1876                           1618172.712676 7220213.898566
 J1878                           1618367.888468 7219887.244241
 J188                            1624977.873934 7216276.278160
 J1880                           1618208.448476 7219893.481564
 J1882                           1617773.754369 7220875.494138
 J1884                           1617678.080999 7220872.452918
 J1886                           1616829.482994 7220829.945631
 J1888                           1623678.515027 7222349.651992
 J1890                           1623954.556694 7222349.651992
 J1892                           1624126.431694 7222511.110326
 J1894                           1617233.633188 7221941.639673
 J1896                           1615429.810688 7220839.103439
 J1898                           1615430.909664 7220621.740862
 J190                            1625984.076318 7217330.611682
 J1900                           1615311.392631 7220623.132895
 J1902                           1615300.975964 7220847.438451
 J1904                           1616433.737950 7220009.375816
 J1906                           1615050.284862 7218772.924625
 J1908                           1616068.814506 7218761.327339
 J1910                           1615728.536728 7218756.119006
 J1912                           1616061.870062 7218447.091228
 J1914                           1615758.050617 7218433.202339
 J1916                           1615872.633951 7218063.410673
 J1918                           1616959.439506 7218058.202339
 J192                            1622371.227901 7216261.752927
 J1920                           1616692.078395 7218063.410673
 J1922                           1616459.007345 7218713.806953
 J1924                           1617423.371717 7218693.639759
 J1926                           1617308.397839 7218683.202339
 J1928                           1616248.502006 7217661.500951
 J1930                           1616567.512423 7217676.691923
 J1932                           1615799.283256 7217826.431506
 J1934                           1616257.182562 7217071.223173
 J1936                           1616567.512423 7217069.053034
 J1938                           1615786.262423 7217672.351645
 J1940                           1615720.215043 7217192.340645
 J1942                           1615805.869628 7217192.360326
 J1946                           1615728.304315 7216842.747779
 J1948                           1615480.435600 7216847.091228
 J1950                           1615837.423447 7216844.921089
 J1958                           1614138.983495 7216677.307361
 J196                            1622382.655044 7216568.243128
 J1962                           1612579.693842 7216797.492274
 J1964                           1612656.245785 7216797.489087
 J1966                           1612477.380758 7215487.683202
 J1968                           1612446.979901 7215132.863482
 J1970                           1612920.093135 7215304.043453
 J1972                           1612365.187007 7214916.032034
 J1974                           1612367.357616 7214858.221341
 J1976                           1614153.795799 7214806.563245
 J198                            1622385.854717 7217554.492249
 J1984                           1614774.894668 7214830.199688
 J1988                           1614996.135040 7214834.396858
 J1992                           1615463.691847 7214841.743956
 J20                             1624254.982008 7221570.102218
 J200                            1624258.373405 7217566.063639
 J2008                           1618402.039099 7215355.881101
 J2010                           1616458.893604 7218063.410673
 J2012                           1616945.872771 7217686.214325
 J2014                           1616707.114107 7217673.191470
 J2016                           1617136.162256 7217681.005992
 J2018                           1617422.746861 7218626.989670
 J202                            1624668.526494 7217568.956667
 J2020                           1617597.742670 7219029.762224
 J2022                           1617442.514529 7221945.967648
 J2024                           1621513.876182 7221147.298852
 J2028                           1618005.697765 7213878.679171
 J2030                           1618589.070109 7214922.284927
 J2032                           1610798.876247 7213045.230808
 J2034                           1611050.235891 7213096.831037
 J2036                           1610421.940277 7212966.600333
 J2038                           1610232.074163 7212703.617122
 J204                            1625022.933490 7218945.025989
 J2040                           1610570.898611 7212898.649668
 J2042                           1610663.782481 7212616.522764
 J2044                           1610367.522314 7212884.264305
 J2046                           1610404.757118 7212704.805628
 J2048                           1613104.345435 7212572.250692
 J2050                           1613309.592389 7212570.519881
 J2052                           1613511.849334 7212664.269881
 J2054                           1613308.861311 7212248.594501
 J2056                           1613111.225358 7212117.387822
 J2058                           1613312.370167 7212121.561548
 J206                            1624624.511780 7221569.667836
 J2060                           1613970.533406 7212308.561725
 J2062                           1613790.765641 7211489.562733
 J2064                           1613970.052648 7211907.158366
 J2066                           1614003.191537 7211187.148205
 J2068                           1615633.631022 7212691.414980
 J2070                           1615772.966494 7211364.615927
 J2072                           1615992.925722 7211369.478214
 J2074                           1612191.623639 7210854.591061
 J2076                           1612189.019472 7210824.209117
 J2078                           1612192.491695 7210663.618839
 J208                            1625054.854095 7218247.019626
 J2080                           1612185.547250 7210279.938284
 J2082                           1611409.653596 7210571.655977
 J2084                           1611292.786833 7210559.157034
 J2086                           1612356.449706 7209887.971266
 J2088                           1612356.675722 7209971.743839
 J2090                           1611745.473106 7209390.872603
 J2092                           1611801.641000 7209394.052867
 J2094                           1618689.826799 7209598.442107
 J2096                           1618668.051590 7209783.773642
 J2098                           1618888.405470 7209604.315783
 J210                            1625119.696814 7219597.217385
 J2100                           1620004.928888 7209155.529711
 J2104                           1620296.467894 7209122.763857
 J2108                           1613044.485400 7213559.729460
 J2110                           1612979.466521 7213591.499337
 J2112                           1612430.795230 7218028.779423
 J2114                           1612371.907204 7218254.925263
 J2124                           1610662.457355 7217647.357111
 J2126                           1611785.875055 7217764.589098
 J2128                           1611814.995405 7217485.373511
 J2130                           1611714.477516 7217146.119899
 J2132                           1611272.150500 7216592.540376
 J2134                           1610986.056439 7216585.140391
 J2136                           1610734.376737 7216586.271855
 J2138                           1610880.813618 7217464.440259
 J214                            1625080.036460 7221088.572998
 J2140                           1611098.903732 7217298.328041
 J216                            1624631.545887 7221056.393928
 J218                            1625477.879168 7222858.065194
 J2182                           1608767.083193 7215486.702640
 J2184                           1608835.557378 7215345.094534
 J2188                           1608628.588113 7215063.494695
 J2190                           1609178.052952 7214709.809369
 J2192                           1609229.361968 7214605.898907
 J2194                           1608773.604227 7214790.006573
 J2196                           1610585.616113 7214408.709978
 J22                             1624243.002701 7222101.873137
 J220                            1624396.248129 7216254.148940
 J2206                           1614296.314033 7206047.930182
 J2210                           1614341.452921 7205518.416293
 J2212                           1613683.458737 7206042.262090
 J2214                           1613749.933690 7205816.959054
 J2216                           1614184.561855 7205060.715510
 J2218                           1614972.332888 7205352.637926
 J222                            1624396.711055 7216297.455612
 J2222                           1614511.591810 7204907.305182
 J2226                           1613851.557606 7205450.116532
 J2232                           1614792.841810 7204507.999626
 J2234                           1614275.074245 7204225.601646
 J224                            1623016.539931 7217558.349087
 J2242                           1614859.761697 7204380.944052
 J2246                           1614900.480699 7204297.930182
 J2248                           1615969.960848 7204344.656026
 J2250                           1615957.772366 7204040.985737
 J2252                           1616348.397366 7204035.777404
 J2258                           1615735.550144 7203778.832960
 J226                            1623042.306939 7218349.449539
 J2260                           1615740.186373 7203879.560172
 J2264                           1615735.550144 7203554.874626
 J2266                           1615627.911255 7203554.874626
 J2274                           1616050.558732 7203245.370732
 J2276                           1615739.456394 7203149.058654
 J2278                           1615758.987644 7203010.603793
 J228                            1623622.956041 7216252.278865
 J2280                           1616092.237372 7202940.991563
 J2282                           1616200.500175 7202945.449390
 J2284                           1616168.615771 7203305.393545
 J2286                           1616296.740771 7203357.824100
 J2290                           1616550.253539 7203424.129096
 J230                            1623621.855649 7216569.602705
 J2306                           1616865.314303 7203440.535346
 J2308                           1617110.984171 7203435.951015
 J2310                           1616991.920205 7203443.472267
 J232                            1622387.877146 7217554.475407
 J2322                           1617362.561949 7203410.109665
 J2324                           1617505.070055 7203489.933705
 J2326                           1617565.018291 7203635.076816
 J2330                           1617744.628716 7206630.119191
 J2332                           1618419.905095 7206888.897001
 J2334                           1618759.483812 7206650.822018
 J2336                           1618494.238441 7206034.552591
 J2338                           1619597.732792 7204682.151086
 J234                            1622380.383395 7219258.846670
 J2340                           1618263.237769 7206223.949049
 J2342                           1618103.779968 7206110.723321
 J2344                           1618107.035176 7205855.732002
 J2346                           1618116.794178 7205539.431844
 J2348                           1618720.938313 7205884.520809
 J2350                           1619751.315022 7205832.286270
 J2352                           1619509.437365 7205831.382712
 J2354                           1618501.912147 7206450.144029
 J2356                           1619312.595229 7206323.484313
 J236                            1622380.358460 7219240.694148
 J2360                           1619761.332051 7205342.711168
 J2366                           1620014.804274 7205035.419502
 J2368                           1619325.214636 7205148.323382
 J2370                           1620150.879651 7204375.604127
 J2372                           1619509.294320 7203074.643146
 J2374                           1619628.630704 7202943.691531
 J2376                           1619991.576695 7203980.749021
 J2378                           1620198.504353 7204646.532610
 J238                            1622711.351893 7219244.187907
 J2380                           1624848.995015 7215276.063341
 J2382                           1625271.793568 7216667.844270
 J2384                           1625291.107804 7216959.076909
 J2386                           1625230.497424 7217567.629061
 J24                             1623586.752701 7222068.018874
 J240                            1620734.264968 7219239.768953
 J2412                           1619234.740094 7210531.511155
 J2416                           1614326.987982 7216564.106634
 J2418                           1614518.807318 7213433.706370
 J242                            1621227.292853 7217565.029848
 J2420                           1615400.236206 7208229.156167
 J2422                           1615230.097317 7208226.552000
 J2424                           1619262.622938 7218331.854485
 J2428                           1619712.240938 7218579.867216
 J2432                           1625003.750916 7214679.098579
 J2434                           1624844.966675 7215166.153067
 J2436                           1624712.345902 7216274.797148
 J2438                           1623761.904821 7214664.548793
 J244                            1620730.937875 7217562.359906
 J2440                           1625013.320806 7214347.120892
 J2442                           1624830.400222 7216117.032606
 J2444                           1624804.358555 7216169.115940
 J2450                           1625391.598138 7215508.525662
 J2454                           1624672.127040 7215602.568403
 J246                            1620279.881034 7217564.379915
 J2460                           1610942.652989 7217884.277241
 J2476                           1618439.353875 7202981.414986
 J2478                           1618353.454049 7202979.936961
 J248                            1620724.790905 7217598.432996
 J2480                           1619767.835798 7203934.693592
 J2482                           1619507.316962 7204563.832425
 J2486                           1625839.756725 7217491.972251
 J2488                           1625244.169299 7217582.993644
 J2492                           1625782.617076 7217426.436621
 J2494                           1625242.300243 7217526.881302
 J2496                           1625243.344285 7217559.569165
 J2498                           1625152.655951 7217584.114134
 J250                            1620726.938867 7219249.170837
 J2500                           1625191.718451 7217583.593301
 J2506                           1619258.905590 7210889.926490
 J2508                           1622018.161232 7218894.055541
 J2512                           1615773.721083 7204478.280759
 J2514                           1615773.690571 7204335.340428
 J2516                           1624052.981749 7213897.426392
 J252                            1620728.653102 7220195.810020
 J2532                           1615344.021272 7205353.692038
 J2536                           1615713.320524 7205341.225959
 J2538                           1615753.945524 7205340.184292
 J254                            1620725.117676 7217849.629673
 J2542                           1615779.344629 7207040.696621
 J2544                           1615779.529301 7206961.008342
 J2552                           1623968.835379 7220898.765001
 J2554                           1624232.837935 7220248.408825
 J2558                           1619410.818546 7219033.006003
 J256                            1619722.374931 7217853.761882
 J2568                           1616890.272199 7220190.233934
 J2570                           1616891.769233 7220133.346645
 J2572                           1617432.198470 7220009.841349
 J2574                           1617356.598258 7220002.356179
 J2576                           1618837.974457 7203001.657091
 J2578                           1619050.908484 7203055.809290
 J258                            1621711.419509 7217560.495080
 J2582                           1619776.087094 7203819.724005
 J2592                           1619787.442915 7203830.262999
 J2596                           1620794.334729 7209736.011057
 J26                             1624802.651844 7221575.525108
 J260                            1621708.868990 7218859.966891
 J2616                           1613718.759941 7218803.379406
 J2618                           1620448.980026 7208797.989248
 J262                            1621704.770573 7219240.314555
 J2620                           1624669.929340 7216298.484481
 J2622                           1625352.987700 7222267.601411
 J2624                           1622764.588007 7213318.507501
 J2626                           1623409.751086 7213155.483549
 J2628                           1625329.576157 7216532.880502
 J2630                           1625932.892251 7217368.100357
 J2636                           1614392.379261 7210879.837263
 J264                            1621075.219010 7217564.083984
 J2640                           1617903.616429 7203505.256458
 J266                            1621052.691824 7218893.552125
 J268                            1621054.036310 7218578.637401
 J270                            1621431.616919 7218596.200030
 J272                            1621058.179674 7217988.571652
 J274                            1621710.670823 7217992.036212
 J2752                           1619176.815929 7203040.300872
 J2754                           1617748.828716 7203827.066638
 J2756                           1619727.150109 7203419.857502
 J276                            1621385.175083 7217990.046386
 J278                            1621380.751536 7218268.617352
 J28                             1624740.441667 7221573.479508
 J280                            1621708.764331 7218869.331701
 J2806                           1621691.514037 7212265.107705
 J2808                           1615765.201595 7206069.206883
 J2810                           1616836.296714 7206481.750177
 J2812                           1615781.592167 7206070.866769
 J2814                           1625812.549384 7217511.674013
 J2816                           1625256.495892 7221892.989954
 J2818                           1625278.791312 7221777.201870
 J282                            1621052.901141 7218869.577436
 J2820                           1625424.798133 7221700.839948
 J284                            1611737.488342 7219453.773774
 J2846                           1620380.669893 7214750.682640
 J2852                           1619745.536589 7216253.019393
 J286                            1612112.820658 7218824.864858
 J2860                           1617088.442152 7213564.347831
 J2862                           1618431.596806 7211542.987501
 J2868                           1618404.701392 7208241.339614
 J2878                           1611733.774110 7221466.027952
 J288                            1613063.118893 7218832.693979
 J2880                           1625540.518791 7216117.883469
 J2886                           1619722.277763 7222003.421719
 J2888                           1619148.645107 7222001.873337
 J2890                           1618547.511139 7221991.536087
 J2892                           1620314.443629 7221994.928797
 J2894                           1619898.168372 7221530.735742
 J2898                           1619097.051286 7213273.399058
 J290                            1613066.090015 7218783.705888
 J2900                           1619768.965297 7213277.650864
 J2902                           1616413.175861 7207435.638297
 J2904                           1616413.187738 7207509.857045
 J292                            1613047.097927 7219388.925150
 J294                            1613065.507667 7218792.727196
 J296                            1617426.559641 7219041.414362
 J298                            1614557.208752 7218843.681818
 J30                             1624940.919284 7222416.977493
 J300                            1615025.091347 7219773.665523
 J302                            1614945.367097 7219003.850461
 J304                            1614841.035612 7219664.171319
 J306                            1615688.577552 7219612.760333
 J308                            1615693.617569 7219084.590785
 J310                            1617426.431032 7219019.960993
 J312                            1617431.025839 7219786.454867
 J314                            1617432.373934 7220158.927875
 J316                            1617616.661951 7218334.408559
 J318                            1617652.461092 7218044.836959
 J32                             1620877.500902 7221526.044892
 J320                            1618348.919017 7218357.017109
 J322                            1618349.104580 7217615.356431
 J324                            1618354.156867 7216268.708950
 J326                            1618349.096838 7217588.696139
 J328                            1617844.595878 7217578.077066
 J330                            1618325.163159 7217202.302883
 J332                            1618348.924266 7217202.341925
 J334                            1618404.373958 7215691.552952
 J336                            1618354.542693 7216217.814039
 J338                            1617412.875941 7216207.657891
 J34                             1622278.073888 7221543.064543
 J340                            1615752.851046 7216175.255069
 J342                            1619392.522900 7216253.318889
 J344                            1619382.161373 7216252.087920
 J346                            1618354.334360 7216245.293314
 J348                            1619369.505886 7216252.048878
 J350                            1619366.616128 7216959.659996
 J352                            1622371.235119 7216264.083959
 J354                            1622374.429666 7216261.770644
 J356                            1620380.936606 7216255.189948
 J358                            1620380.638050 7213293.515097
 J36                             1622210.797776 7221989.807088
 J360                            1620304.195946 7216254.474726
 J362                            1620304.049949 7217564.033131
 J364                            1619722.747306 7220227.910677
 J366                            1619712.641863 7219648.958713
 J368                            1619713.648899 7218360.061066
 J370                            1619722.107215 7217554.774619
 J372                            1619719.146919 7217853.043380
 J374                            1619713.979279 7218329.591967
 J376                            1617420.042922 7218341.940040
 J378                            1619714.248635 7218304.755403
 J38                             1620684.048861 7222048.534989
 J380                            1620174.595155 7218328.680880
 J382                            1620175.759523 7218883.926488
 J384                            1619710.281123 7218885.827075
 J386                            1619709.530140 7219032.021665
 J388                            1618362.301864 7219033.660769
 J390                            1621684.774550 7219567.813900
 J392                            1621408.051022 7219571.294536
 J394                            1619030.302496 7220228.109824
 J396                            1619031.600066 7220122.487988
 J398                            1624266.039072 7216296.963815
 J40                             1620378.343107 7221521.030138
 J400                            1622377.403742 7216249.992124
 J402                            1622377.841077 7216230.856007
 J404                            1622377.134385 7216261.785735
 J406                            1621661.357922 7216263.171189
 J408                            1621631.749393 7216959.453959
 J410                            1621647.543685 7216263.143990
 J412                            1621654.926184 7215953.028151
 J414                            1621037.723678 7216261.276878
 J416                            1621207.528129 7217564.923549
 J418                            1621203.164948 7217071.766727
 J42                             1619646.498114 7221512.304106
 J420                            1620304.191353 7217069.390091
 J422                            1621050.475621 7216384.739886
 J424                            1620819.547934 7216774.160695
 J426                            1622272.541091 7214324.498928
 J428                            1622272.026000 7214899.622121
 J430                            1622703.604861 7214893.526989
 J432                            1623017.972999 7214884.327860
 J434                            1622992.817537 7214885.064079
 J436                            1623435.081088 7216244.769037
 J438                            1623419.222852 7214685.763953
 J44                             1618914.664932 7221510.295908
 J440                            1623445.268076 7213931.687049
 J442                            1623706.527068 7213871.448981
 J444                            1624012.876849 7213859.830894
 J446                            1622801.358931 7212567.087088
 J448                            1622714.018999 7214893.222252
 J450                            1622694.183292 7214316.894612
 J452                            1622922.855735 7214314.867057
 J454                            1622775.861606 7213894.496835
 J456                            1623417.593590 7214672.833205
 J458                            1623672.486125 7214637.975007
 J46                             1618383.262780 7221507.789023
 J460                            1623664.471050 7214638.010112
 J462                            1624050.142194 7215301.789952
 J464                            1622201.348976 7209981.310107
 J468                            1622487.661067 7210969.536149
 J470                            1622487.678127 7210965.844228
 J472                            1621700.082918 7210966.438058
 J474                            1622292.386851 7214079.775992
 J476                            1622417.369869 7213551.091026
 J478                            1622327.420574 7213759.840936
 J48                             1619918.097965 7221979.137162
 J480                            1621999.265062 7213520.117990
 J482                            1622426.909876 7213249.712035
 J484                            1622631.913075 7212284.466918
 J486                            1622408.875135 7212276.913128
 J488                            1621747.225868 7212482.117114
 J490                            1622411.526377 7212419.919731
 J492                            1621884.585830 7212713.952936
 J494                            1621697.069472 7211219.274495
 J496                            1621550.395881 7210964.735962
 J498                            1622202.380470 7209982.382940
 J50                             1618365.267737 7221991.923225
 J500                            1622580.576564 7209968.436445
 J502                            1622475.092195 7210536.665624
 J504                            1622793.908814 7210574.336808
 J506                            1613265.827149 7206155.203586
 J508                            1613119.125998 7208181.245138
 J510                            1613131.106323 7206849.548379
 J512                            1613736.747467 7206853.554224
 J514                            1613129.891045 7207497.248032
 J516                            1614400.231048 7207513.893126
 J518                            1614415.064023 7207285.888333
 J52                             1622141.353361 7221539.286335
 J520                            1615779.952042 7207302.641908
 J522                            1614415.064023 7207218.526919
 J524                            1615444.230600 7207298.413570
 J526                            1614748.432451 7207289.945411
 J528                            1615779.041938 7207171.312118
 J530                            1615777.416942 7207430.746967
 J532                            1616846.713360 7206073.937673
 J536                            1615780.668904 7206469.254139
 J538                            1615779.428093 7207208.502005
 J54                             1622122.019082 7221287.034871
 J540                            1616743.269013 7207025.833079
 J542                            1615775.796866 7207963.717030
 J544                            1617496.689422 7206633.199349
 J546                            1615775.806053 7207960.681275
 J548                            1618429.820758 7209191.431110
 J550                            1613123.579074 7209930.155354
 J552                            1611410.831843 7210794.742864
 J554                            1612115.188702 7208728.068519
 J556                            1611715.806955 7209841.449823
 J558                            1613118.929148 7208130.241631
 J56                             1624310.121005 7219597.067123
 J560                            1614415.848471 7208173.819300
 J562                            1614414.375377 7208209.177497
 J564                            1615056.114907 7208222.825435
 J566                            1614412.286470 7207513.666093
 J568                            1614922.855331 7209612.708810
 J570                            1615774.279153 7209579.490045
 J572                            1613123.739274 7209946.543194
 J574                            1614438.489173 7209805.430210
 J576                            1614436.130910 7210164.234938
 J578                            1613919.804187 7209850.243768
 J58                             1624482.477944 7220217.977954
 J580                            1613412.367538 7209954.505043
 J582                            1615774.279153 7209583.922451
 J584                            1615776.155789 7210895.832557
 J586                            1616413.193885 7207209.564667
 J588                            1616396.783813 7208891.449754
 J590                            1616401.699486 7208666.271071
 J592                            1617091.307687 7208666.163459
 J594                            1615774.279153 7209572.771226
 J596                            1616709.485944 7209580.221015
 J598                            1617118.017935 7209613.821013
 J600                            1617525.977093 7209610.641885
 J602                            1617759.300773 7209609.821349
 J604                            1617523.226770 7209610.663211
 J606                            1617522.206103 7210093.633045
 J608                            1617522.212665 7210090.765925
 J610                            1617258.190883 7210081.176049
 J612                            1617551.581700 7210917.898785
 J614                            1616662.333807 7209578.708550
 J616                            1615774.856579 7210002.139134
 J618                            1616343.741925 7210276.100856
 J62                             1623672.532057 7220248.846987
 J620                            1616276.918895 7210383.088503
 J622                            1616726.636500 7210194.325757
 J624                            1616824.635648 7210272.914183
 J626                            1617548.735906 7210917.826935
 J628                            1618434.335840 7210940.587060
 J630                            1613121.703093 7210864.972710
 J632                            1614910.733964 7210886.546814
 J634                            1614893.495504 7212155.150505
 J636                            1614708.408253 7212152.054782
 J638                            1615083.668657 7212157.523603
 J64                             1623968.246032 7220249.894557
 J640                            1613107.627006 7213523.944098
 J642                            1613144.997010 7213470.034101
 J644                            1613146.873646 7213502.327672
 J646                            1613149.162028 7213502.222685
 J648                            1613041.363031 7213524.367982
 J650                            1613044.930937 7213525.004135
 J652                            1609940.811489 7213402.629380
 J654                            1614436.216837 7213526.317312
 J656                            1615768.124966 7213545.962099
 J658                            1614430.486565 7212704.510698
 J66                             1623956.887131 7221563.349279
 J660                            1614424.625028 7213110.115858
 J662                            1614430.964910 7212671.335895
 J664                            1614421.565323 7213526.121915
 J666                            1614431.002640 7212495.095106
 J668                            1613107.236258 7213509.616699
 J670                            1613763.619788 7213519.868975
 J672                            1613134.700771 7213502.618682
 J674                            1613134.766387 7213510.019585
 J676                            1613111.444911 7212096.578515
 J678                            1612524.104879 7212087.551302
 J68                             1622569.628423 7220247.312213
 J680                            1613044.036582 7212095.909881
 J682                            1612605.919020 7212673.512072
 J684                            1613095.676898 7216167.398129
 J686                            1613049.498513 7212816.673859
 J688                            1613040.283965 7214491.674118
 J690                            1615768.131199 7213548.185520
 J692                            1618413.525843 7213596.711997
 J694                            1615774.062290 7210896.588461
 J696                            1615755.029847 7214829.178036
 J698                            1615763.547547 7213971.959278
 J70                             1622365.335852 7220246.518908
 J700                            1615127.233531 7214837.577298
 J702                            1615086.229020 7214836.673100
 J704                            1615754.880241 7214846.446374
 J706                            1615754.144350 7214931.353685
 J708                            1616008.821991 7214937.941926
 J710                            1615759.111860 7214371.930591
 J712                            1616199.870821 7214371.282627
 J714                            1616241.493113 7214115.237863
 J716                            1616929.031436 7214186.433915
 J718                            1617068.785094 7214221.075906
 J72                             1621685.012738 7219550.534735
 J720                            1615754.301174 7215379.136910
 J722                            1615093.310042 7215379.548983
 J724                            1615118.315898 7215380.033890
 J726                            1615162.102227 7216167.826278
 J728                            1614729.899680 7215371.198606
 J730                            1615754.312001 7215398.463971
 J732                            1616138.090433 7216183.255053
 J734                            1613095.851767 7216119.359839
 J736                            1615715.337013 7216174.342997
 J738                            1615763.612836 7216175.516551
 J74                             1621684.974352 7220245.508739
 J740                            1614755.168002 7216156.007732
 J742                            1614771.583980 7217014.071960
 J744                            1617418.495681 7216207.720555
 J746                            1617412.203370 7217210.078786
 J748                            1617836.481721 7217578.158103
 J750                            1617413.754548 7217582.168265
 J752                            1617412.117084 7217179.073599
 J754                            1617069.976693 7217180.062770
 J756                            1617411.097729 7216740.620080
 J758                            1618111.385371 7216215.454791
 J76                             1622368.903759 7220246.532687
 J760                            1617673.242875 7216423.225045
 J762                            1617675.398054 7216741.751639
 J764                            1611681.332286 7213354.677376
 J766                            1611379.757758 7213352.088143
 J768                            1612170.674155 7213143.995055
 J770                            1612183.137713 7213441.428843
 J772                            1611993.075101 7212757.193007
 J774                            1612008.763062 7212506.281107
 J776                            1611993.102004 7212758.818332
 J778                            1612344.683978 7212759.128043
 J78                             1622360.269918 7220637.989909
 J780                            1612170.910375 7213145.015066
 J782                            1612392.132046 7212522.634093
 J784                            1611118.481378 7212594.986639
 J786                            1611207.406397 7212552.588101
 J788                            1611161.537066 7212483.441586
 J790                            1611743.058869 7212728.116622
 J792                            1611293.394742 7212809.656813
 J794                            1611758.064744 7212366.688211
 J796                            1611725.198668 7213000.133138
 J798                            1611265.823603 7213346.695109
 J80                             1621664.621047 7220629.244520
 J800                            1611922.867564 7213429.218894
 J802                            1611930.174964 7213431.471186
 J804                            1611835.183028 7213796.893027
 J806                            1611543.642929 7214006.880140
 J808                            1611379.523179 7214032.070050
 J810                            1611545.130787 7214006.433619
 J812                            1611568.258037 7214215.419749
 J814                            1611594.740924 7214388.168420
 J816                            1611568.392517 7214216.282291
 J818                            1611377.023183 7214216.970599
 J82                             1621664.629905 7220245.328949
 J820                            1611596.468939 7214388.131018
 J822                            1611245.938472 7214563.481061
 J824                            1611244.506060 7214562.187100
 J826                            1611633.211557 7214913.012624
 J828                            1611143.959017 7214468.862812
 J830                            1613041.804959 7213936.298260
 J832                            1612318.761129 7213956.097105
 J834                            1611834.104290 7213798.109560
 J836                            1612076.187139 7213907.554551
 J838                            1612317.432064 7213956.009835
 J84                             1621664.617110 7220797.026993
 J840                            1612331.712875 7213789.516074
 J842                            1612607.592901 7213453.807099
 J844                            1612834.358195 7213940.115510
 J846                            1612832.128869 7213487.799814
 J848                            1613101.788763 7214492.060272
 J850                            1612464.037086 7214785.774908
 J852                            1611729.190130 7215036.970928
 J854                            1611649.970144 7214893.910846
 J856                            1613016.823053 7216100.435008
 J858                            1613095.999076 7216078.886167
 J86                             1621664.622031 7220578.971655
 J860                            1612416.415134 7215980.915890
 J862                            1612215.053988 7215678.940116
 J864                            1612243.583458 7215750.224423
 J866                            1611259.757998 7215697.620853
 J870                            1611102.089678 7215017.092359
 J872                            1612284.953126 7220500.696221
 J874                            1613033.606485 7220596.190452
 J876                            1612488.787036 7220192.026891
 J878                            1612991.636096 7221471.593885
 J88                             1621069.094022 7220567.701008
 J880                            1612764.586025 7221469.882603
 J882                            1612762.853745 7221775.706794
 J884                            1613044.344652 7219758.304661
 J886                            1613720.739625 7219737.853914
 J888                            1614904.486929 7219435.487393
 J890                            1615690.232733 7219439.303987
 J892                            1621716.300077 7214226.300961
 J894                            1621034.848028 7213642.902850
 J896                            1621017.563942 7210958.375410
 J898                            1618430.530074 7209098.202294
 J90                             1621037.028142 7220932.472916
 J900                            1618413.851958 7210940.053925
 J902                            1619088.348968 7209134.772758
 J904                            1619087.357828 7209167.457076
 J906                            1618430.152450 7209151.854745
 J908                            1619843.868455 7209220.082955
 J910                            1618414.639030 7210282.995856
 J912                            1618014.640158 7210282.302944
 J914                            1619067.605899 7210942.343946
 J916                            1619074.015007 7210531.261107
 J918                            1619248.300748 7210944.137906
 J92                             1621026.379213 7221202.177757
 J920                            1618428.617020 7211955.214624
 J922                            1619745.142274 7210947.244527
 J924                            1620314.907539 7209135.490277
 J926                            1622116.530248 7212659.091825
 J928                            1621878.335842 7213116.036121
 J930                            1622490.259159 7211316.454091
 J932                            1622939.169022 7211369.236137
 J934                            1622801.457356 7212564.554613
 J936                            1623155.274889 7212487.776879
 J938                            1623354.954280 7213155.342145
 J94                             1620377.612466 7220891.278773
 J940                            1622786.419000 7212927.109990
 J942                            1622513.245990 7213254.883941
 J944                            1622663.588865 7212721.103840
 J946                            1622417.011930 7212715.821371
 J948                            1620408.562863 7211616.116549
 J950                            1619731.683968 7212610.390807
 J952                            1620413.227880 7210951.125097
 J954                            1620408.845999 7211561.600910
 J956                            1620402.464778 7212027.473010
 J958                            1621038.615081 7212026.800767
 J96                             1621307.412443 7220919.191447
 J960                            1618424.815846 7212601.558148
 J962                            1621029.981896 7212621.280549
 J964                            1618418.986134 7213269.012521
 J966                            1621034.818828 7213285.380271
 J968                            1621036.307014 7213777.461964
 J970                            1621215.653441 7213789.702753
 J972                            1622447.261870 7213650.536037
 J974                            1622729.549035 7213533.625181
 J976                            1618404.356898 7215692.896125
 J978                            1618502.512869 7215698.572623
 J98                             1620773.775059 7220672.880588
 J980                            1618404.802107 7215048.833109
 J982                            1618148.606753 7215049.440719
 J984                            1618338.702830 7211818.761485
 J986                            1618430.146544 7211818.897968
 J988                            1614757.532827 7216344.938128
 J990                            1614597.024617 7216343.234391
 J992                            1615350.974225 7217666.544409
 J994                            1614781.442884 7217669.235348
 J996                            1615074.336327 7217666.936468
 J998                            1615082.871415 7218377.536097
 PMP_BOOSTER1_NU                 1625932.884985 7217383.676146
 PMP_BOOSTER1_ND                 1625936.457355 7217378.531034
 PMP_BOOSTER2_NU                 1625986.721935 7217327.050360
 PMP_BOOSTER2_ND                 1625990.657229 7217322.614411
 PMP_CARNESECCA_NU               1622195.900453 7221989.927227
 PMP_CARNESECCA_ND               1622204.089079 7221989.883961
 PMP_CROWD_NU                    1619970.113775 7203098.140413
 PMP_CROWD_ND                    1619982.273509 7203097.492517
 PMP_SEAL_NU                     1617016.060812 7221948.189935
 PMP_SEAL_ND                     1617015.910639 7221941.026741
 PMP_WESTWOOD_NU                 1614400.262551 7207218.823366
 PMP_WESTWOOD_ND                 1614408.584544 7207218.712780
 CONTROL_MAPLEBENCH_NU           1626490.391742 7216789.616045
 CONTROL_MAPLEBENCH_ND           1626481.985065 7216776.864233
 PRV_400N-Z3_NU                  1625180.806993 7217595.312051
 PRV_400N-Z3_ND                  1625166.848660 7217595.155801
 PRV_MAPLE-Z2_LOWERTANK_NU       1626005.655803 7217328.664441
 PRV_MAPLE-Z2_LOWERTANK_ND       1626003.623392 7217330.628479
 PRV_MAPLE-Z3_LOWERTANKS_NU      1625831.532569 7217498.528152
 PRV_MAPLE-Z3_LOWERTANKS_ND      1625825.127464 7217503.646908
 PRV_MAPLECANYON_NU              1625991.741674 7217282.818455
 PRV_MAPLECANYON_ND              1625910.513622 7217367.359493
 PRV_Z2-Z1_1600N_NU              1622273.953227 7221543.011984
 PRV_Z2-Z1_1600N_ND              1622240.665630 7221541.768155
 PRV_Z2-Z1_1600S_NU              1622119.949737 7210956.818774
 PRV_Z2-Z1_1600S_ND              1622065.887247 7210957.027041
 PRV_Z2-Z1_400N_NU               1622440.943733 7217555.029755
 PRV_Z2-Z1_400N_ND               1622419.717098 7217554.808016
 PRV_Z2-Z1_400S_NU               1622617.140201 7214891.078634
 PRV_Z2-Z1_400S_ND               1622505.989175 7214892.239588
 PRV_Z2-Z1_800W_2_NU             1615779.606625 7207235.862681
 PRV_Z2-Z1_800W_2_ND             1615779.843370 7207272.144629
 PRV_Z2-Z1_LOWERTWINHOLLOW_NU    1618092.143512 7206512.673083
 PRV_Z2-Z1_LOWERTWINHOLLOW_ND    1618001.661410 7206556.999241
 PRV_Z2-Z1_SOUTHMAIN_NU          1618427.214004 7208612.913501
 PRV_Z2-Z1_SOUTHMAIN_ND          1618426.112169 7208769.708463
 PRV_Z2-Z1_VILLAGE_NU            1617554.167432 7203607.831163
 PRV_Z2-Z1_VILLAGE_ND            1617530.188138 7203549.773919
 PRV_Z3-Z2_1600S_NU              1623015.281327 7210971.364290
 PRV_Z3-Z2_1600S_ND              1623012.052160 7210970.070887
 PRV_Z3-Z2_850N1800E_NU          1624663.448361 7218953.621073
 PRV_Z3-Z2_850N1800E_ND          1624560.218037 7218971.086495
 PRV_Z3-Z2_BENCH_NU              1624765.556472 7216210.782606
 PRV_Z3-Z2_BENCH_ND              1624711.784786 7216262.530023
 PRV_Z3-Z2_EAGLECOURT_NU         1624042.689342 7213887.819459
 PRV_Z3-Z2_EAGLECOURT_ND         1624026.647382 7213872.781260
 PRV_Z3-Z2_HIDDENNORTH_NU        1620146.643177 7204845.108175
 PRV_Z3-Z2_HIDDENNORTH_ND        1620141.066417 7204839.621966
 PRV_Z3-Z2_VILLAGE_NU            1618413.021391 7202980.961900
 PRV_Z3-Z2_VILLAGE_ND            1618378.661460 7202980.370690
 RES_SEALWELL                    1617015.721626 7221968.673040
 RES_CARNESECCAWELL              1622162.897865 7221991.758126
 RES_WESTWOODWELL                1614376.487114 7207193.836688
 RES_CROWD                       1619914.132981 7203109.293483
 T3_LOWERTANK                    1625925.280990 7217448.918428
 T1_MAPLE1                       1628887.267391 7216594.462409
 T2_MAPLE2                       1628994.689266 7216613.993659
 T4_WESTWOOD                     1617022.799528 7205605.455444
 T5_CROWD                        1621470.475300 7204500.833551

[VERTICES]
 P1003                           1616460.331711 7218389.787798
 P1003                           1616954.391342 7218389.923474
 P1005                           1616955.629519 7218390.993774
 P1005                           1616960.503748 7218694.729172
 P1005                           1616961.248527 7218997.925439
 P1005                           1616961.094325 7219046.116395
 P1009                           1617973.012692 7219046.364847
 P1011                           1615078.900514 7218709.941075
 P1017                           1618226.994014 7206395.729940
 P1017                           1618224.389847 7206272.032023
 P1019                           1611010.681803 7213234.466919
 P1019                           1611029.779025 7213156.341919
 P1021                           1611111.211140 7212603.372127
 P1021                           1610981.840481 7212712.673343
 P1021                           1610977.725897 7212719.131676
 P1021                           1610907.135620 7212811.157718
 P1021                           1610835.955064 7212955.254940
 P1023                           1610538.476736 7213133.816768
 P1027                           1610659.700694 7212656.158348
 P1029                           1610933.850029 7212464.272663
 P1029                           1610936.063571 7212464.116413
 P1029                           1611119.950290 7212472.102524
 P1033                           1610264.300086 7215924.143736
 P1033                           1610263.562239 7216049.838180
 P1033                           1610272.040248 7216160.631004
 P1035                           1610388.466815 7216490.073111
 P1035                           1610412.705230 7216546.576832
 P1037                           1610314.248065 7213880.698111
 P1043                           1610148.494965 7213923.169343
 P1043                           1610199.059201 7213956.806496
 P1045                           1609954.178620 7213966.027972
 P1045                           1609840.895862 7214223.538267
 P1045                           1609761.512181 7214441.194517
 P1045                           1609741.928848 7214486.093244
 P1045                           1609930.014785 7214584.899668
 P1045                           1609976.889785 7214611.331959
 P1047                           1610121.815277 7215084.985026
 P1053                           1611120.299893 7214493.794496
 P1055                           1610777.854835 7213983.063562
 P1057                           1610958.410391 7214262.577451
 P1057                           1610990.425161 7214262.964772
 P1057                           1611089.727459 7214268.233724
 P1057                           1611184.948313 7214265.887512
 P1057                           1611279.100785 7214224.463042
 P1063                           1613640.818418 7212294.870319
 P107                            1623684.449028 7217610.282054
 P107                            1623681.136371 7218268.572732
 P107                            1623677.750879 7218939.406036
 P1077                           1615336.756022 7213130.651091
 P1081                           1615473.908800 7212644.539980
 P1085                           1615150.992133 7212163.637202
 P1085                           1615520.783800 7212172.317758
 P1085                           1615638.839355 7212191.414980
 P1089                           1614570.111056 7216687.978927
 P1089                           1614572.715223 7216634.593510
 P1089                           1614563.600640 7216583.812260
 P1089                           1614516.725640 7216564.281010
 P1089                           1614373.496473 7216565.583094
 P109                            1625875.374108 7217467.780043
 P1091                           1610633.645442 7214064.493268
 P1091                           1610609.831047 7214110.495732
 P1099                           1618744.112793 7218058.219089
 P11                             1622519.062907 7221540.830952
 P1103                           1618978.487793 7217818.635756
 P1103                           1618979.789876 7218084.260756
 P1103                           1618957.654459 7218181.917006
 P1105                           1616699.979343 7220828.994775
 P1107                           1616701.161910 7220827.945058
 P1109                           1610481.268741 7216583.181418
 P1109                           1610640.940010 7216587.559034
 P1111                           1609512.422254 7214814.856543
 P1111                           1609474.539784 7214882.805226
 P1111                           1609466.308829 7214896.469896
 P1111                           1609427.443421 7214971.243041
 P1111                           1609381.077372 7215057.633288
 P1111                           1609340.479028 7215131.819819
 P1111                           1609332.906865 7215147.122610
 P1111                           1609319.062076 7215173.111732
 P1111                           1609287.299016 7215234.472501
 P1111                           1609267.829567 7215267.424863
 P1111                           1609233.538953 7215331.787923
 P1113                           1619249.462491 7206656.086443
 P1113                           1619269.996899 7206670.909248
 P1113                           1619276.117949 7206674.525054
 P1113                           1619395.564561 7206723.365180
 P1113                           1619413.252190 7206729.885508
 P1113                           1619419.596009 7206731.087605
 P1113                           1619467.944994 7206722.157177
 P1113                           1619498.871113 7206717.324837
 P1113                           1619510.357310 7206714.592231
 P1113                           1619520.746069 7206722.037426
 P1115                           1618519.445547 7206662.993395
 P1117                           1619212.400885 7206617.695772
 P1117                           1619240.451354 7206584.424185
 P1117                           1619250.729549 7206571.935692
 P1117                           1619280.497206 7206499.389578
 P1117                           1619287.454869 7206482.541186
 P1119                           1618347.104388 7213904.325227
 P1119                           1618288.091710 7213887.695995
 P1119                           1618118.730829 7213855.981492
 P1121                           1620843.068228 7204599.890096
 P1121                           1620843.917963 7204613.721105
 P1121                           1620790.142152 7204982.680013
 P1121                           1620879.688889 7205201.326885
 P1121                           1620890.267608 7205278.842806
 P1121                           1620876.739748 7205364.357399
 P1121                           1620820.221817 7205448.901849
 P1121                           1620743.204910 7205502.700626
 P1121                           1620678.396313 7205529.673997
 P1121                           1620591.406329 7205535.994851
 P1121                           1620506.211290 7205516.095941
 P1121                           1620419.265926 7205507.759999
 P1121                           1620380.857866 7205493.452941
 P1121                           1620361.932379 7205482.091744
 P1123                           1628869.906280 7216596.632548
 P1125                           1629012.050377 7216593.377340
 P1127                           1628668.351363 7216389.072735
 P1127                           1628565.920808 7216394.281068
 P1127                           1628269.045808 7216461.989401
 P1127                           1628150.990252 7216500.183846
 P1127                           1628013.837474 7216512.336624
 P1127                           1627695.695113 7216502.788012
 P1127                           1627446.129141 7216539.680374
 P1127                           1627166.181224 7216589.593568
 P1127                           1626888.403447 7216648.187318
 P1127                           1626675.729835 7216695.930374
 P1127                           1626595.434697 7216734.992874
 P1129                           1620238.075883 7205069.258490
 P1133                           1624408.511602 7219400.002387
 P1137                           1609214.867403 7215478.805018
 P1139                           1609527.866348 7215483.556352
 P1139                           1609601.130237 7215338.938296
 P1141                           1612220.468200 7215490.230975
 P1141                           1612311.614033 7215488.147642
 P1147                           1610522.129079 7212449.217521
 P115                            1626015.336755 7217296.417852
 P115                            1625995.140273 7217317.897468
 P1151                           1613970.620212 7211715.066355
 P1153                           1617310.048063 7208040.644041
 P1153                           1617313.906651 7208040.310709
 P1153                           1617315.132370 7208041.527898
 P1153                           1617714.150929 7208617.893871
 P1153                           1618429.544840 7209191.440952
 P1157                           1617495.651038 7206632.825663
 P1157                           1617495.263900 7206633.975595
 P1157                           1617492.072305 7206644.988696
 P1157                           1617440.856856 7206834.224538
 P1157                           1617438.348987 7206897.036092
 P1157                           1617416.334268 7207110.483172
 P1157                           1617396.594150 7207179.331131
 P1157                           1617326.924670 7207372.202137
 P1157                           1617314.550022 7207478.934863
 P1157                           1617313.035590 7207534.311392
 P1157                           1617034.299599 7207529.306481
 P1157                           1616971.907991 7207551.767394
 P1157                           1616933.713514 7207588.660037
 P1157                           1616866.547638 7207723.642379
 P1157                           1616863.796987 7207785.513974
 P1157                           1616873.493162 7208047.070866
 P1159                           1616871.269085 7208050.026896
 P1161                           1612778.479042 7221469.934440
 P1163                           1612088.808833 7220803.267794
 P1163                           1611917.367903 7221071.062862
 P1163                           1611856.603917 7221179.569863
 P1163                           1611797.576148 7221316.505613
 P1165                           1614238.509587 7220193.582334
 P1167                           1613569.065059 7220193.929446
 P1167                           1613058.495870 7220194.306086
 P1169                           1615002.008060 7220184.262142
 P117                            1625939.065910 7217374.313366
 P117                            1625973.028440 7217323.315108
 P117                            1625989.196059 7217306.822031
 P117                            1626006.882703 7217281.865716
 P1171                           1616089.494074 7220182.985898
 P1171                           1616394.064987 7220183.512800
 P1175                           1616757.745690 7220187.835626
 P1179                           1618439.777103 7221121.447932
 P1181                           1618430.799102 7220570.931317
 P1181                           1618432.144900 7220619.735681
 P1181                           1618432.818455 7220631.439726
 P1181                           1618433.111762 7220656.479374
 P1189                           1618365.133551 7221996.681418
 P1189                           1618361.227063 7222148.157165
 P1189                           1618350.810417 7222516.646585
 P119                            1626015.469628 7217320.283290
 P1191                           1616759.618389 7222472.386503
 P1191                           1616754.710919 7222830.751928
 P1193                           1616347.808518 7222176.140705
 P1193                           1616048.676570 7222165.897615
 P1195                           1616034.959406 7222172.713546
 P1197                           1616015.211086 7222342.852641
 P1197                           1616017.598220 7222614.119815
 P1197                           1616017.815411 7222792.288422
 P1197                           1616010.219954 7222798.798908
 P1197                           1616009.536884 7222833.760124
 P1201                           1617450.916876 7221497.153874
 P1205                           1616968.205899 7221491.767401
 P1209                           1615733.595835 7221483.609937
 P121                            1625992.906025 7217340.167765
 P1219                           1615760.665335 7220525.970120
 P1221                           1615749.988191 7221387.428371
 P1221                           1615746.157162 7221482.623063
 P1223                           1617432.635088 7220213.974025
 P1223                           1617435.474977 7221495.434061
 P1227                           1614782.647934 7222198.949058
 P1227                           1614909.688034 7222198.723008
 P1229                           1613844.573038 7222167.617100
 P1229                           1614162.005146 7222175.540968
 P123                            1626007.440445 7217327.046728
 P1231                           1614850.301670 7222512.623299
 P1235                           1615707.014523 7222541.020552
 P1235                           1615711.261890 7222834.260123
 P1239                           1613744.203488 7222811.741796
 P1239                           1613711.564774 7222796.290383
 P1239                           1613704.245891 7222796.438020
 P1241                           1613316.590827 7222173.951076
 P1241                           1613022.908999 7222176.338867
 P1247                           1613044.299377 7219764.367969
 P125                            1625872.860005 7217469.722296
 P125                            1625867.041119 7217470.167505
 P1251                           1614352.124517 7221217.554367
 P1253                           1614352.654043 7221469.378995
 P1255                           1613529.886004 7220846.854977
 P1261                           1617081.713218 7222839.997316
 P1265                           1614942.917955 7220184.777889
 P1265                           1614931.565287 7220185.596129
 P1265                           1614926.704076 7220194.971110
 P1265                           1614905.870785 7220196.012775
 P1265                           1614652.051082 7220196.012775
 P1265                           1614544.759630 7220198.096104
 P1273                           1617398.101036 7221495.482945
 P1277                           1616029.776345 7221482.915385
 P1279                           1614530.818057 7221484.825158
 P1281                           1614991.061231 7221483.262825
 P1281                           1614680.297417 7221485.172598
 P1287                           1613033.448676 7220607.901059
 P1287                           1613028.891271 7221211.416584
 P1287                           1613024.839114 7221466.337990
 P1289                           1616399.349425 7222833.532106
 P1289                           1616031.222865 7222829.664004
 P1289                           1616025.491249 7222829.743728
 P1289                           1616021.324590 7222835.082300
 P129                            1625858.257344 7217469.197034
 P129                            1625839.199312 7217469.836141
 P129                            1625836.623857 7217469.766259
 P129                            1625809.625880 7217474.698008
 P1291                           1616006.328885 7222834.907104
 P1295                           1618416.538304 7220127.488634
 P1295                           1618369.923568 7220127.644802
 P1327                           1621684.708933 7219569.019935
 P1327                           1621684.601978 7219672.069925
 P1327                           1621684.939904 7220242.901133
 P1329                           1622349.368693 7220757.049055
 P1329                           1622312.476378 7220846.241790
 P1329                           1622214.820077 7221015.946503
 P1329                           1622135.176208 7221157.873712
 P1329                           1622121.287128 7221224.496939
 P1337                           1620386.767959 7220247.805979
 P1339                           1619650.064380 7221319.478048
 P1341                           1619687.564305 7220711.535366
 P1341                           1619684.829731 7220788.358047
 P1341                           1619672.708036 7220931.792143
 P1343                           1618909.833905 7220894.071090
 P1343                           1618439.708861 7220890.724968
 P1345                           1619669.727070 7220934.577899
 P1345                           1619381.705009 7220927.420761
 P1345                           1619238.085217 7220921.821691
 P1345                           1619174.413100 7220913.358125
 P1345                           1619030.793309 7220895.780076
 P1349                           1618998.241209 7220565.571747
 P1349                           1618936.262002 7220561.144591
 P1349                           1618837.303867 7220544.868705
 P1349                           1618738.085233 7220527.681075
 P1349                           1618658.137230 7220521.951756
 P1349                           1618430.012030 7220519.223087
 P135                            1625925.036410 7217445.288618
 P1355                           1618438.507092 7220222.896908
 P1359                           1620386.052409 7220235.831593
 P1359                           1620264.177325 7220230.623270
 P1359                           1620066.260726 7220229.581606
 P1359                           1619728.998934 7220227.934955
 P1363                           1622325.715197 7220251.171129
 P1365                           1626021.636611 7217272.359174
 P137                            1625755.418311 7217526.516802
 P137                            1625725.557479 7217548.391758
 P137                            1625686.321336 7217561.933398
 P137                            1625607.501940 7217566.794608
 P1373                           1622380.278080 7219239.757142
 P1375                           1622380.465087 7219241.939880
 P1381                           1622367.538932 7217554.349095
 P1397                           1621705.073065 7219199.192918
 P1401                           1621056.165571 7218019.954791
 P1405                           1613063.273092 7218827.337035
 P1411                           1614564.098502 7218845.225450
 P1411                           1614727.943975 7218905.989436
 P1413                           1617424.161024 7219041.161082
 P1415                           1616699.211030 7219052.557057
 P1419                           1614905.591586 7219526.605649
 P1419                           1614866.723881 7219619.750148
 P1437                           1619709.465836 7219013.113238
 P1439                           1619722.354918 7217557.194890
 P1443                           1617613.519897 7218334.389202
 P1443                           1617443.033689 7218337.253697
 P1443                           1617435.072091 7218342.153950
 P1445                           1619002.738575 7218332.655937
 P1449                           1617415.627904 7217582.365115
 P1451                           1615073.233967 7217667.031941
 P1451                           1614798.375921 7217669.122160
 P1455                           1618362.293334 7219028.087617
 P1459                           1619727.078990 7217554.250014
 P1461                           1619077.393938 7217535.772033
 P1461                           1619073.594733 7217541.502336
 P1461                           1619073.579969 7217561.317913
 P1463                           1618925.586827 7217563.106952
 P1465                           1619730.092107 7217554.908149
 P1469                           1619367.722097 7217561.324147
 P1469                           1619642.817676 7217559.634846
 P1469                           1619711.339848 7217560.877953
 P1473                           1617970.608093 7219533.117119
 P1473                           1617971.331189 7219630.661872
 P1477                           1617710.017735 7219663.739561
 P1481                           1616091.729633 7219522.096144
 P1481                           1616229.439332 7219520.595819
 P1483                           1616584.297218 7219522.922586
 P1485                           1616232.172594 7219520.708023
 P1485                           1616581.751619 7219523.063005
 P1487                           1622797.594174 7220247.434260
 P149                            1622383.939162 7216825.552981
 P149                            1622385.015931 7217016.582126
 P149                            1622386.221966 7217481.220961
 P1497-1600N                     1622194.854894 7221539.954969
 P1499                           1619015.949507 7220895.259080
 P1499                           1618919.680014 7220894.410985
 P1501                           1619040.194537 7220228.197094
 P1505                           1623682.431972 7217562.562005
 P1507                           1621052.948057 7218864.202118
 P1509                           1615713.317332 7219084.548463
 P1509                           1615735.886841 7219069.791602
 P151                            1624259.414085 7217555.142073
 P151                            1624254.912126 7216296.921820
 P1511                           1614958.412674 7219009.722169
 P1511                           1615165.226893 7219073.524206
 P1511                           1615291.963188 7219088.931984
 P1511                           1615639.471023 7219084.706927
 P1513                           1618357.419000 7218334.884936
 P1517                           1619258.486095 7217561.153872
 P1527                           1618348.919017 7217190.642145
 P153                            1625705.563096 7217577.663681
 P155                            1624867.589050 7219583.591100
 P155                            1624682.139628 7219587.543810
 P155                            1624648.705630 7219804.226485
 P1553                           1623619.883212 7216251.974731
 P1553                           1623444.527920 7216244.806111
 P1555                           1623065.118246 7216243.316940
 P1555                           1622753.877070 7216237.414065
 P1557                           1621053.366035 7216390.128983
 P1557                           1621167.167973 7216596.899895
 P1557                           1621167.428471 7216825.285265
 P1557                           1621204.668226 7216922.941565
 P1559                           1621203.105565 7217077.628920
 P1561                           1617412.233554 7217220.963279
 P1563                           1617413.796215 7217592.057025
 P1563                           1617419.660048 7218308.863990
 P1565                           1617410.931391 7216752.473402
 P1567                           1617942.415893 7216743.040022
 P1567                           1618106.131116 7216640.401120
 P1583                           1617420.207947 7218356.176888
 P159                            1625048.277993 7218958.337101
 P1601                           1616085.696837 7220184.116145
 P1609                           1615214.099499 7216169.373191
 P1611                           1614793.960575 7216156.873216
 P1613                           1614757.582367 7216349.674011
 P1615                           1614767.999013 7216822.547409
 P1617                           1613542.264588 7214787.197805
 P1617                           1613470.046884 7214787.535075
 P1617                           1613112.520697 7214783.388102
 P1619                           1613101.759563 7214496.893596
 P1627                           1623391.113985 7214462.685987
 P1627                           1623366.847957 7214316.729914
 P1627                           1623454.047914 7213999.144263
 P1627                           1623448.405537 7213938.380605
 P1629                           1622714.750508 7213956.302157
 P1629                           1622647.042966 7214052.205837
 P1631                           1622773.210365 7213245.411847
 P1633                           1622697.706907 7214339.905065
 P1639                           1622474.915030 7210538.155122
 P1641                           1622203.466097 7209983.511875
 P1641                           1622297.223128 7210107.095945
 P1641                           1622423.763885 7210322.829109
 P1641                           1622479.728012 7210496.465901
 P1641                           1622475.271000 7210535.163987
 P1645                           1622494.266041 7211347.043924
 P1645                           1622516.250577 7211417.795751
 P1645                           1622621.719526 7211559.852882
 P1645                           1622897.240300 7211793.056156
 P1645                           1622954.011184 7211900.087438
 P1645                           1622968.203741 7212056.988371
 P1645                           1622904.401703 7212221.571703
 P1645                           1622827.708944 7212374.176057
 P1645                           1622804.401575 7212488.889410
 P1649                           1622336.845096 7213740.119191
 P1649                           1622387.539548 7213690.466403
 P1657                           1613124.258811 7207497.002806
 P1657                           1613118.382075 7207951.534056
 P1659                           1613114.351730 7206944.265985
 P1663                           1615776.871995 7207302.462119
 P167                            1623017.515979 7217933.364085
 P167                            1623016.265325 7218223.060684
 P167                            1623018.869322 7218269.241038
 P1671                           1615780.019955 7207299.206876
 P1677                           1616415.108908 7207209.612895
 P1677                           1616548.204442 7207206.936719
 P1677                           1616628.716420 7207174.601810
 P1677                           1616723.551532 7207077.162372
 P1681                           1611674.735843 7209840.391098
 P1681                           1611461.369471 7209836.401605
 P1681                           1611421.438777 7209860.012778
 P1681                           1611406.160921 7209910.360118
 P1685                           1614414.203133 7208213.314956
 P1685                           1614413.404578 7208795.307886
 P1685                           1614444.654515 7208850.103708
 P1685                           1614701.273425 7208861.713921
 P1685                           1614734.156889 7208872.199137
 P1685                           1614825.513990 7208970.112327
 P1685                           1614836.364690 7209035.759177
 P1685                           1614795.884128 7209250.621936
 P1685                           1614792.202377 7209393.831952
 P1685                           1614903.712980 7209578.535979
 P1689                           1614888.935123 7209639.726145
 P1689                           1614811.733506 7209769.157645
 P1689                           1614747.880943 7209804.236971
 P1689                           1614661.125867 7209833.393737
 P1689                           1614467.413984 7209808.471870
 P1695                           1615776.085908 7210892.642930
 P1697                           1616401.922911 7208668.718901
 P17                             1623933.106995 7221562.810566
 P1705                           1616338.515885 7210274.014246
 P1705                           1616302.925733 7210239.639315
 P1705                           1616220.113235 7210141.548960
 P1705                           1616170.634003 7210085.646185
 P1705                           1616076.883862 7210030.090850
 P1705                           1615998.238022 7210007.521341
 P1705                           1615780.572119 7210002.215905
 P1707                           1616724.453433 7210197.799176
 P1707                           1616639.036938 7210266.375482
 P1707                           1616527.231387 7210309.951839
 P1707                           1616386.779896 7210293.285205
 P1709                           1616841.103463 7210910.906345
 P1709                           1617246.268335 7210916.982777
 P171                            1622388.014941 7217557.083998
 P171                            1622393.855480 7217949.522189
 P171                            1622397.501471 7218443.445742
 P171                            1622393.161256 7218860.459672
 P1713                           1617951.035298 7210928.006377
 P1715                           1615772.325088 7210897.446070
 P1717                           1613134.985875 7210864.990099
 P1721                           1614902.512524 7210886.442812
 P1723                           1614894.630978 7212155.189946
 P1725                           1615766.748000 7213545.901075
 P1727                           1614425.094843 7213078.456144
 P1729                           1614424.526931 7213116.727065
 P1729                           1614421.566963 7213525.132088
 P173                            1622381.450978 7219240.711864
 P1731                           1617634.915851 7213581.196936
 P1731                           1617993.639871 7213589.139834
 P1733                           1615768.047866 7213517.445095
 P1739                           1615137.076031 7214837.832875
 P1741                           1616199.830139 7214374.657948
 P1741                           1616201.645424 7214677.306621
 P1741                           1616343.355442 7214677.740675
 P1741                           1616685.803248 7214677.523484
 P1741                           1616891.098441 7214678.174729
 P1741                           1616885.022010 7214458.122676
 P1741                           1616886.342217 7214304.223706
 P1741                           1616907.175509 7214232.825883
 P1741                           1616928.062934 7214188.957860
 P1743                           1616931.065881 7214187.612062
 P1743                           1616970.326629 7214207.001459
 P1743                           1617057.566284 7214218.286213
 P1747                           1612993.468113 7214492.073067
 P1747                           1612483.051483 7214495.545173
 P1747                           1612465.690297 7214513.253471
 P1749                           1621035.912002 7213776.518396
 P1751                           1621038.863440 7212018.515022
 P1751                           1621037.040609 7211648.202443
 P1751                           1621032.613452 7211519.035706
 P1751                           1621018.030148 7211352.890041
 P1751                           1621020.634146 7211184.660719
 P1751                           1621017.681067 7210959.599161
 P1753                           1621029.974678 7212618.653914
 P1753                           1621031.311290 7212270.598180
 P1755                           1621034.818172 7213275.476747
 P1755                           1621022.943196 7213242.455816
 P1755                           1621026.693189 7213027.872584
 P1755                           1621027.422518 7212925.997460
 P1755                           1621029.453682 7212757.091301
 P1755                           1621030.130846 7212675.528800
 P1757                           1620994.332361 7210958.098180
 P1759                           1620343.290684 7210950.285860
 P1761                           1618429.916886 7209185.326135
 P1763                           1618413.728926 7210902.870928
 P1763                           1618413.536013 7210936.619877
 P1765                           1618425.061253 7209493.254653
 P1767                           1619089.597981 7209134.678927
 P1767                           1619229.067847 7209148.576865
 P1767                           1619476.680869 7209184.709666
 P1767                           1619707.909081 7209216.285063
 P1769                           1620396.804556 7212598.062349
 P1769                           1620396.565841 7212613.405231
 P1769                           1620398.735980 7212613.622245
 P1769                           1620399.278514 7212615.032836
 P1769                           1620399.278514 7212616.985961
 P1769                           1620398.301952 7212617.962523
 P1769                           1620397.433896 7212618.505058
 P1769                           1620396.348827 7212618.505058
 P1775                           1618412.600320 7213966.867097
 P1775                           1618410.213185 7214202.978173
 P1777                           1618428.442480 7211970.773320
 P1777                           1618430.612423 7212280.669026
 P1781                           1618405.438917 7215061.702178
 P1785                           1618410.213185 7214571.033868
 P1789                           1617429.987456 7214048.905319
 P1795                           1620910.260022 7204701.041140
 P1801                           1613520.788909 7214145.983208
 P1801                           1613619.257216 7214144.434655
 P1801                           1613710.096601 7214175.066484
 P1801                           1613921.519079 7214388.648405
 P1801                           1613921.598147 7214482.605567
 P1801                           1613915.238251 7214759.430144
 P1801                           1613915.768434 7214791.313611
 P1803                           1619084.561246 7209830.013494
 P1805                           1618408.210236 7207501.037509
 P1811                           1612816.601012 7215165.249060
 P1811                           1612783.962123 7215135.735171
 P1813                           1614007.097787 7211138.971122
 P1815                           1622268.491230 7214889.387233
 P1815                           1622263.803903 7214793.553764
 P1821                           1613111.323849 7212111.104076
 P1827                           1615754.075125 7214974.920527
 P1827                           1615754.076437 7214977.004512
 P1827                           1615754.119744 7215054.609344
 P1827                           1615754.148616 7215106.518033
 P1827                           1615754.151896 7215112.247024
 P1827                           1615754.171253 7215146.796167
 P1829                           1615754.219482 7214922.654227
 P1833                           1622707.238056 7213597.408190
 P1835                           1614163.729880 7209776.535911
 P1835                           1613933.585000 7209845.521993
 P1837                           1615755.879255 7214663.358486
 P1839                           1615763.501943 7213976.175149
 P1841                           1615768.131855 7213548.469968
 P1843                           1619728.707267 7210947.160866
 P1845                           1619232.092775 7210944.035872
 P1847                           1618419.071763 7209757.577287
 P1847                           1618414.644607 7210279.192058
 P1849                           1618414.553400 7213605.972806
 P1851                           1618418.893942 7213280.018077
 P1853                           1618424.536319 7212617.040728
 P1853                           1618420.629831 7213072.986995
 P1857                           1613123.899611 7209962.934160
 P1857                           1613122.111885 7210815.905879
 P1859                           1615753.947172 7215491.936225
 P1859                           1615753.303145 7215639.678384
 P1859                           1615753.070206 7215693.061151
 P1859                           1615753.012791 7215719.495481
 P1859                           1615752.995075 7215852.698955
 P1859                           1615752.966859 7216066.500693
 P1859                           1615752.965547 7216075.945228
 P1861                           1619004.228073 7210941.692045
 P1861                           1618455.888947 7210935.530968
 P1861                           1618449.280036 7210935.962726
 P1861                           1618449.540535 7210940.389882
 P1863                           1613600.361913 7209959.695649
 P1865                           1610293.459406 7213301.401892
 P1865                           1610059.218076 7213308.795578
 P1869                           1612833.492055 7213487.303095
 P187                            1620683.777864 7217849.984003
 P1873                           1613041.772807 7213940.805797
 P1875                           1612177.672829 7213174.226294
 P1875                           1612185.832261 7213275.615199
 P1875                           1612183.161991 7213439.991838
 P1879                           1611994.206004 7212758.154947
 P1883                           1612610.046964 7212670.854925
 P1883                           1612621.657177 7212549.326953
 P1883                           1612572.937458 7212522.851284
 P1885                           1611869.002186 7212498.024890
 P1885                           1611756.662844 7212494.502916
 P1887                           1611206.258105 7212552.892891
 P1889                           1611742.990956 7212729.470950
 P1889                           1611725.794139 7212999.271919
 P189                            1621711.557961 7217564.754914
 P1891                           1611726.251160 7213000.637074
 P1891                           1611865.981523 7213097.174282
 P1891                           1611919.974525 7213208.459165
 P1891                           1611938.550932 7213301.861865
 P1893                           1611745.495216 7213898.042431
 P1893                           1611667.717484 7213955.160427
 P1893                           1611571.363346 7213998.563228
 P1897                           1611568.172079 7214214.866929
 P19                             1624253.669018 7221611.778972
 P1901                           1611594.903981 7214386.504053
 P1905                           1611452.552560 7214391.258637
 P1905                           1611406.979816 7214401.154614
 P1905                           1611332.891054 7214466.909732
 P1905                           1611246.153038 7214562.303898
 P1911                           1612801.584967 7213940.362885
 P1911                           1612611.601095 7213938.834016
 P1913                           1612074.974872 7213907.102125
 P1913                           1611835.085916 7213799.123010
 P1915                           1612259.696615 7213952.223753
 P1915                           1612202.474617 7213941.876661
 P1915                           1612077.369880 7213907.996152
 P1921                           1612051.363370 7213956.043300
 P1921                           1612010.738451 7214024.168163
 P1921                           1611964.418990 7214076.112613
 P1921                           1611893.446691 7214133.612498
 P1921                           1611813.793964 7214177.848630
 P1921                           1611750.044091 7214198.057251
 P1921                           1611697.335535 7214207.501458
 P1921                           1611571.204882 7214214.609055
 P1923                           1612317.595121 7213954.919942
 P1925                           1612243.306884 7215749.492797
 P1927                           1612057.877137 7215374.766184
 P1927                           1611978.970798 7215275.807720
 P1929                           1611858.918873 7215157.578626
 P193                            1621071.095987 7217787.316149
 P1931                           1609941.951579 7213404.781935
 P1935                           1612580.678256 7216940.429391
 P1937                           1612133.656185 7216672.902695
 P1937                           1612152.151554 7216701.906574
 P1937                           1612292.543990 7216913.775573
 P1937                           1612332.917597 7216934.603287
 P1939                           1612577.678590 7216686.767497
 P1939                           1612422.754032 7216689.237308
 P1943                           1612101.588007 7216332.947338
 P1945                           1610633.003018 7214030.340067
 P1947                           1610655.868786 7214050.811483
 P1949                           1609735.589130 7213538.542494
 P1949                           1609729.417883 7213532.918162
 P1949                           1609661.521693 7213490.550136
 P1949                           1609564.629498 7213449.821543
 P1949                           1609530.378911 7213436.644404
 P1949                           1609507.776594 7213427.111287
 P1949                           1609507.048577 7213427.893109
 P1949                           1609503.786772 7213434.397689
 P1949                           1609490.281878 7213462.607279
 P1949                           1609470.973846 7213497.112787
 P1949                           1609452.102164 7213532.783975
 P1949                           1609432.312506 7213566.744866
 P1949                           1609415.471988 7213603.031538
 P1949                           1609394.803066 7213637.456994
 P1949                           1609375.751595 7213675.972665
 P1949                           1609358.717509 7213706.736712
 P195                            1621062.147842 7218578.744028
 P195                            1621412.762626 7218580.024209
 P1951                           1610480.872417 7217321.240309
 P1951                           1610486.342550 7217337.558518
 P1951                           1610504.413380 7217383.452455
 P1951                           1610507.235225 7217394.040361
 P1951                           1610534.297835 7217448.403769
 P1951                           1610553.439201 7217490.858736
 P1951                           1610562.774484 7217502.622492
 P1951                           1610632.652953 7217602.442175
 P1951                           1610661.057096 7217645.078572
 P1957                           1610284.300148 7214182.781444
 P1957                           1610275.287499 7214309.530744
 P1957                           1610265.218055 7214516.752966
 P1957                           1610265.669444 7214715.884911
 P1957                           1610266.146874 7214997.894459
 P1959                           1609824.755291 7213528.648157
 P1961                           1610007.294878 7213796.800709
 P1963                           1612129.580096 7213729.609425
 P1963                           1612167.557526 7213577.699702
 P1967                           1609593.843634 7215560.736618
 P1967                           1609721.968634 7215558.653284
 P1967                           1609829.260300 7215538.340784
 P1967                           1609938.114467 7215511.778284
 P1967                           1610092.856221 7215481.678458
 P1969                           1610284.490190 7212434.460576
 P197                            1621071.975906 7217988.132020
 P1975                           1612831.448096 7213488.047845
 P1977                           1611680.185963 7213354.205921
 P1977                           1611507.217805 7213309.233242
 P1977                           1611375.373909 7213329.458923
 P1979                           1612181.537979 7213440.737900
 P1979                           1612020.498931 7213444.507577
 P1979                           1611937.999096 7213433.882599
 P1981                           1612606.019085 7213453.842860
 P1981                           1612433.712983 7213409.657993
 P1983                           1611264.481086 7213346.863088
 P1983                           1611143.131919 7213352.083878
 P1985                           1610545.348666 7213318.376268
 P1985                           1610362.582955 7213304.100706
 P1987                           1610798.289433 7213333.403141
 P1987                           1610549.811255 7213318.463866
 P1989                           1611008.769983 7213346.582576
 P1989                           1610802.606353 7213333.818166
 P199                            1621385.575017 7217992.091986
 P1991                           1611138.895379 7213351.549758
 P1991                           1611013.152520 7213346.889334
 P1993                           1611682.283072 7213355.068124
 P1997                           1610358.583619 7213303.843489
 P1997                           1610297.541091 7213301.835947
 P2003                           1613042.998854 7213503.264350
 P2003                           1613041.524120 7213523.389965
 P2005                           1613141.581006 7213502.570125
 P2009                           1620300.731058 7216254.442574
 P2013                           1621027.293581 7216261.213230
 P2027                           1621446.811443 7204496.617337
 P2027                           1621315.931127 7204485.763356
 P2027                           1621108.986659 7204515.624517
 P2027                           1621087.458815 7204414.929836
 P2027                           1620981.903252 7204323.957905
 P2027                           1620801.969885 7204297.072460
 P2029                           1615777.155459 7216207.874754
 P2029                           1616111.183335 7216217.597175
 P2029                           1618347.762851 7216249.365157
 P2029                           1618354.304833 7216249.198490
 P2029                           1618449.551033 7216249.819880
 P203                            1611738.703562 7218858.548258
 P203                            1611764.398065 7218820.353781
 P203                            1611843.905124 7218818.971894
 P2033                           1615794.648207 7216176.271143
 P2035                           1616153.241977 7216183.563123
 P2035                           1617103.242046 7216200.750424
 P2037                           1618397.641688 7216217.683789
 P2045                           1616091.831995 7221460.151979
 P2049                           1614987.759072 7221900.411925
 P2049                           1615134.251233 7221856.086883
 P2049                           1615233.556809 7221823.968837
 P2049                           1615290.674805 7221821.711951
 P2049                           1615697.992888 7221826.871062
 P205                            1612304.849412 7218828.079159
 P205                            1612977.093146 7218832.762877
 P2051                           1614942.879897 7222469.313018
 P2053                           1614977.672150 7222202.266965
 P2053                           1615273.939930 7222192.530107
 P2053                           1615692.752085 7222186.680054
 P2055                           1614165.743984 7222179.351984
 P2055                           1614162.432967 7222605.804215
 P2055                           1614166.623903 7222795.126999
 P2057                           1614223.110011 7222177.303104
 P2057                           1614348.923080 7222187.126903
 P2059                           1613039.053980 7221471.348151
 P2061                           1613024.354863 7221474.398998
 P2061                           1613024.492986 7221707.143283
 P2063                           1612992.021922 7220194.400902
 P2065                           1613038.656999 7220221.399207
 P2067                           1615743.313992 7222188.150851
 P2067                           1615733.403578 7222399.353841
 P2067                           1615713.264511 7222475.395355
 P2069                           1616000.459147 7222179.615107
 P2073                           1614795.704010 7217669.439088
 P2083                           1618320.290793 7218335.008951
 P2083                           1617898.849707 7218335.517808
 P2083                           1617781.228223 7218335.430866
 P2087                           1611374.500879 7213330.934970
 P2089                           1611372.877851 7213329.864106
 P2089                           1611266.965005 7213346.552065
 P209                            1613067.519146 7218792.871881
 P2091                           1611755.314094 7212495.718136
 P2091                           1611743.118908 7212726.919117
 P2093                           1611754.104122 7212494.432050
 P2093                           1611591.485025 7212499.500609
 P2093                           1611406.155015 7212499.848049
 P2095                           1612431.734001 7213408.043083
 P2095                           1612437.410498 7213329.428739
 P2095                           1612462.757561 7213311.199445
 P2095                           1612590.014524 7213334.984174
 P2095                           1612607.896706 7213364.845335
 P2097                           1612429.832774 7213409.189243
 P2097                           1612185.457918 7213442.431138
 P2099                           1612610.874062 7213939.555144
 P2099                           1612614.141116 7214192.430622
 P2099                           1612573.863310 7214193.472287
 P2099                           1612278.724464 7214190.694405
 P2099                           1612174.905118 7214199.722274
 P2099                           1612124.210665 7214231.666764
 P2099                           1612061.710462 7214385.486338
 P2099                           1611707.500541 7214386.571310
 P2101                           1612609.794012 7213938.581064
 P2101                           1612540.460489 7213950.695869
 P2101                           1612445.807791 7213958.473741
 P2103                           1616415.933053 7208038.807103
 P2105                           1616401.518056 7208664.284854
 P2107                           1616871.431158 7208666.079142
 P211                            1614556.781916 7218862.715901
 P211                            1614543.301956 7219504.705103
 P211                            1614832.063846 7219658.834059
 P2111                           1621012.065921 7213285.517082
 P2117                           1621020.518004 7212621.311061
 P2123                           1623245.209421 7210971.450187
 P2123                           1623462.006559 7210976.094535
 P2123                           1623716.563793 7210978.698533
 P2123                           1623803.152203 7210997.578744
 P2123                           1623940.522007 7211010.165661
 P2123                           1624173.260714 7210993.325472
 P213                            1614940.957985 7219017.518085
 P213                            1614901.034180 7219150.737635
 P2131-1600S                     1622007.005860 7210957.248772
 P2133-TWINHOLLOW                1620137.995163 7204835.212132
 P2133-TWINHOLLOW                1620134.691364 7204832.437203
 P2135                           1620134.597532 7204828.933929
 P2135                           1620119.005371 7204812.153123
 P2135                           1620070.273185 7204775.948799
 P2135                           1619987.844544 7204729.805518
 P2135                           1619956.334437 7204718.911511
 P2135                           1619883.729267 7204704.104454
 P2135                           1619810.276330 7204702.478145
 P2135                           1619770.883036 7204703.375125
 P2135                           1619679.278889 7204709.811792
 P2135                           1619624.938446 7204702.311807
 P2137-TWINH                     1617867.071883 7206622.904751
 P2137-TWINH                     1617794.839416 7206629.657690
 P2139-MAIN                      1618427.705276 7208773.613376
 P2139-MAIN                      1618427.736116 7208871.646316
 P2139-MAIN                      1618432.921473 7208876.788694
 P2141                           1626492.218675 7216792.392614
 P2147-LOWERTANK                 1626002.359418 7217331.956823
 P2155                           1625930.134985 7217387.176146
 P2157                           1617032.471846 7222833.811961
 P2191                           1621646.824822 7216264.989141
 P2199-Z2-Z1-MAPLE               1622402.748507 7216248.698819
 P2199-Z2-Z1-MAPLE               1622380.930966 7216250.103016
 P2203-1200E                     1622642.544616 7213563.329846
 P2203-1200E                     1622695.062227 7213539.675038
 P2207                           1624663.448361 7218953.621073
 P2209-850N                      1624405.372551 7218997.284629
 P221                            1617616.774155 7218333.669059
 P221                            1617614.856508 7218078.524228
 P2211                           1613073.307192 7218121.472633
 P2211                           1613069.331150 7218486.309173
 P2211                           1613068.674656 7218546.559709
 P2211                           1613068.518488 7218560.863814
 P2211                           1613068.143817 7218595.256134
 P2215                           1618445.688508 7216245.678812
 P2217                           1619206.219810 7215561.391689
 P2217                           1619171.497588 7215483.266689
 P2217                           1619189.360188 7214952.106531
 P2219                           1619188.858699 7214723.718078
 P2219                           1619214.900365 7214645.593078
 P2221                           1625005.106279 7213661.477289
 P2223                           1624367.858988 7213614.487754
 P2223                           1624231.140238 7213929.591921
 P2223                           1624121.765238 7213962.144004
 P2227                           1623205.846639 7215657.318769
 P2227                           1623255.846539 7215789.870997
 P2227                           1623424.596529 7215891.693956
 P2227                           1623435.016128 7216176.416155
 P2235                           1613412.271386 7206043.259103
 P2237                           1614004.928374 7205910.490212
 P2237                           1614008.400596 7205908.645594
 P2237                           1614058.096777 7205846.471115
 P2237                           1614074.047298 7205817.698690
 P2241                           1614193.144520 7205420.881561
 P2241                           1614215.713964 7205364.457949
 P2241                           1614242.623687 7205296.749616
 P2241                           1614279.082020 7205239.457949
 P2243                           1614489.759103 7205279.070218
 P2243                           1614554.602853 7205315.528551
 P2243                           1614627.519520 7205344.044176
 P2243                           1614699.394520 7205350.294176
 P2243                           1614777.519520 7205347.690010
 P2243                           1614845.227853 7205350.294176
 P2269                           1615122.355916 7209562.728924
 P2269                           1615062.524015 7209560.517970
 P2269                           1614977.098004 7209569.504829
 P227                            1618346.311082 7217589.055062
 P227                            1618080.697112 7217592.494032
 P2271                           1615754.543956 7216140.073380
 P2271                           1615764.179435 7216147.365032
 P2271                           1615763.547875 7216174.454873
 P2273                           1616138.200997 7216181.817063
 P2275                           1617054.149625 7221822.907159
 P2277                           1622117.830770 7221896.098942
 P2277                           1622071.993919 7221897.586800
 P2277                           1621987.480965 7221895.767906
 P2277                           1621962.218548 7221896.271514
 P2277                           1621748.599881 7221876.815844
 P2277                           1621737.202266 7221875.172802
 P2279                           1614744.925240 7207433.804704
 P229                            1618348.081092 7217202.301899
 P2293                           1609785.643160 7213576.734787
 P2293                           1609729.456007 7213668.124023
 P2313                           1623497.637567 7220629.730117
 P2315                           1623014.853582 7220754.678652
 P2315                           1623021.768595 7220761.343993
 P2315                           1623020.206918 7220869.859524
 P2317                           1622839.898880 7220573.310577
 P2317                           1622838.002558 7220628.031596
 P2317                           1622838.347702 7220657.273007
 P2317                           1622837.191208 7220695.598718
 P2317                           1622836.238454 7220748.048088
 P2317                           1622839.736806 7220751.925705
 P2319                           1622880.926029 7220405.848641
 P2319                           1622846.459234 7220406.436239
 P2319                           1622839.848683 7220412.846987
 P2319                           1622839.413972 7220522.142372
 P2323                           1621389.376822 7220944.041293
 P233                            1618347.124073 7216218.086020
 P2333                           1622379.307128 7219329.093543
 P2335                           1622712.206433 7219334.301876
 P2347                           1620274.648563 7219645.463624
 P235                            1615752.952096 7216176.416155
 P2355                           1622743.891854 7217555.225078
 P2355                           1622644.793955 7217556.516086
 P2355                           1622440.943733 7217555.029755
 P2355                           1622440.943733 7217555.029755
 P2363                           1618363.520037 7219033.608932
 P2367                           1617742.085629 7219046.389550
 P2373                           1618118.415375 7219048.905207
 P2373                           1617974.023332 7219045.282249
 P2379                           1618374.329071 7220215.176123
 P2385                           1617772.882767 7220804.408540
 P2391                           1623592.577527 7222349.651992
 P2395                           1624027.473360 7222429.079076
 P2401                           1615426.554126 7221483.207051
 P2409                           1616433.871665 7220180.296927
 P241                            1620316.080108 7216256.528856
 P241                            1620559.774175 7216261.764410
 P2429                           1616456.288924 7218617.546229
 P2429                           1616459.176449 7218391.136300
 P243                            1622374.429010 7216264.207975
 P247                            1620380.702027 7216221.199859
 P2471                           1614137.819390 7216689.281010
 P2471                           1614130.006890 7216734.853927
 P2471                           1614103.965223 7216771.312260
 P2471                           1614031.048556 7216788.239344
 P2471                           1613952.923556 7216783.031010
 P2471                           1613898.236056 7216806.468510
 P2471                           1613878.704806 7216866.364344
 P2471                           1613885.215223 7216987.458094
 P2471                           1613926.881890 7217020.010177
 P2477                           1612580.572942 7216938.256823
 P2481                           1612640.802401 7215487.225333
 P2481                           1612767.364901 7215485.142000
 P2481                           1612816.687818 7215432.106699
 P2483                           1612419.291984 7215132.627532
 P2483                           1612084.396151 7215135.058088
 P2483                           1612045.507262 7215151.030310
 P2487                           1612398.329212 7214858.392545
 P2487                           1612438.954131 7214846.239682
 P249                            1620304.422980 7216258.271963
 P25                             1624742.697896 7221618.102122
 P25                             1624919.565324 7221926.352490
 P25                             1624948.210936 7222033.643942
 P2501                           1614992.750860 7214834.287278
 P2509                           1615753.261150 7214846.249853
 P251                            1619723.244024 7220225.203005
 P2519                           1618400.881839 7215456.016350
 P2547                           1615753.164438 7217602.880992
 P2555                           1617443.032377 7222042.114726
 P2555                           1617451.350930 7222820.618090
 P2563                           1617979.461094 7213883.947643
 P2563                           1617973.949950 7213884.656959
 P2563                           1617933.183956 7213898.228455
 P2565                           1618609.499077 7214924.328753
 P2565                           1618706.721300 7214939.953753
 P2569                           1611067.973470 7213045.230808
 P2569                           1611128.737359 7212949.744697
 P2569                           1611212.070692 7212862.939141
 P2573                           1610206.174218 7212668.835576
 P2573                           1610162.396006 7212648.555628
 P2581                           1610388.047048 7212753.633753
 P2581                           1610340.466753 7212794.812139
 P2583                           1613103.511200 7212632.979345
 P2583                           1613102.469536 7213098.083401
 P2583                           1613100.386207 7213258.500075
 P2587                           1613309.592389 7212728.505992
 P2587                           1613321.745167 7212735.450436
 P2587                           1613379.904889 7212732.846270
 P2587                           1613432.856278 7212720.693492
 P259                            1619713.979279 7218329.591967
 P259                            1619673.996091 7218329.735996
 P2591                           1613106.115526 7212443.395734
 P2597                           1613989.804239 7212325.749225
 P2597                           1613989.804239 7212325.749225
 P2601                           1613969.752156 7212008.859757
 P2603                           1613968.903342 7211265.707233
 P2603                           1613967.167231 7211448.432927
 P261                            1619718.601973 7218304.709143
 P261                            1620173.502310 7218301.808230
 P2617                           1612395.616695 7210662.750784
 P2617                           1612441.623639 7210619.348006
 P2617                           1612444.227806 7210318.132728
 P2617                           1612405.165306 7210278.202173
 P2619                           1611974.609750 7210278.202173
 P2619                           1611927.734750 7210319.000784
 P2619                           1611924.262528 7210617.611895
 P2619                           1611970.269472 7210662.750784
 P2621                           1611427.300722 7210813.705645
 P2627                           1612314.841518 7209878.068516
 P2627                           1612099.216621 7209851.332349
 P2631                           1611717.272175 7209487.096201
 P2631                           1611715.753149 7209806.466953
 P2635                           1618859.126657 7209602.950300
 P2639                           1618912.623598 7209605.680609
 P2639                           1618924.438535 7209605.281004
 P2639                           1618936.574009 7209605.973588
 P2639                           1618997.488585 7209606.497537
 P2639                           1619038.510485 7209624.924337
 P2639                           1619065.002886 7209652.615883
 P2639                           1619080.775164 7209688.916007
 P2639                           1619084.678372 7209826.577477
 P2643                           1619988.581104 7209164.198990
 P2645                           1620251.167910 7209091.499337
 P2645                           1620131.810271 7209088.244129
 P2659                           1612417.480121 7218155.966930
 P2659                           1612422.688454 7218109.091930
 P2663                           1610711.401811 7217706.764473
 P267                            1619708.374959 7219032.012150
 P2671                           1611774.533215 7217876.043990
 P2671                           1611768.452519 7217947.355855
 P2673                           1611801.630602 7217611.582576
 P2673                           1611790.351753 7217720.597122
 P2675                           1611740.697981 7217186.966628
 P2675                           1611809.698827 7217301.243302
 P2675                           1611819.051171 7217325.283608
 P2675                           1611822.432398 7217370.795656
 P2675                           1611823.597750 7217404.186010
 P2677                           1611300.085345 7216598.607240
 P2677                           1611356.188907 7216632.675085
 P2677                           1611405.524767 7216674.006368
 P2677                           1611514.097712 7216837.624807
 P2677                           1611591.184500 7216954.051739
 P2679                           1611030.178077 7216585.144341
 P2679                           1611153.295612 7216586.571831
 P2679                           1611244.629091 7216586.563301
 P2681                           1610817.604683 7216585.125312
 P2683                           1610716.959287 7216909.873180
 P2683                           1610721.299565 7217027.060680
 P2683                           1610749.511371 7217246.244707
 P2683                           1610818.955815 7217395.984291
 P2685                           1610981.716232 7216840.428735
 P2685                           1610979.546093 7217027.060680
 P2685                           1611003.417621 7217135.567624
 P2689                           1610981.716232 7217576.105818
 P2689                           1611177.028732 7217680.272485
 P2689                           1611341.959287 7217725.845402
 P269                            1621683.837872 7219567.868034
 P2691                           1611255.153732 7217424.196096
 P2691                           1611446.125954 7217458.918318
 P271                            1619030.375003 7220227.513040
 P273                            1624235.838017 7216253.387786
 P2755                           1608993.109461 7215428.427867
 P2755                           1608912.380294 7215397.177867
 P2757                           1609536.002593 7214772.174949
 P2759                           1608580.349044 7215149.782034
 P2765                           1608950.140711 7214457.073700
 P2769                           1610611.966464 7214412.185547
 P2769                           1610885.577575 7214473.643881
 P2769                           1610999.415839 7214487.568237
 P2769                           1611036.850723 7214489.543765
 P277                            1621659.238839 7216268.085920
 P277                            1621657.139762 7216811.407011
 P277                            1621647.244113 7216899.297912
 P2779                           1613707.410275 7206042.174033
 P2779                           1613737.792219 7206040.003894
 P2779                           1613820.257497 7206029.153200
 P2779                           1613956.759233 7205959.274728
 P2781                           1615256.440238 7205354.419249
 P2781                           1615319.374265 7205355.504318
 P279                            1621651.331047 7216262.506863
 P2793                           1614028.952921 7206014.944071
 P2793                           1614100.133477 7206040.985737
 P2801                           1613803.258477 7205617.374626
 P281                            1621037.744019 7216262.107913
 P281                            1621038.001565 7216361.483043
 P2827                           1614964.716810 7204329.180182
 P283                            1621202.374924 7217071.832016
 P283                            1620306.231047 7217069.338910
 P2835                           1615833.206394 7204040.985737
 P285                            1621049.861121 7216385.246118
 P285                            1620996.088919 7216408.817922
 P285                            1620931.092986 7216455.041911
 P285                            1620888.884081 7216552.589616
 P2857                           1615735.116116 7203080.048237
 P2859                           1615798.650494 7202941.967619
 P2863                           1615758.987644 7203010.603793
 P2863                           1615833.546327 7203060.717619
 P2863                           1615883.553077 7203116.345880
 P2863                           1615954.630296 7203183.399861
 P287                            1622382.206554 7215942.859208
 P287                            1622381.512001 7215745.637161
 P287                            1622378.908004 7215610.741106
 P287                            1622373.699681 7215489.734458
 P287                            1622358.964474 7215187.455863
 P287                            1622351.247298 7215145.413624
 P287                            1622303.040045 7215008.657992
 P2887                           1616483.688145 7203411.310809
 P2893                           1617459.847352 7203438.683749
 P2893                           1617371.671226 7203409.377362
 P29                             1622278.072248 7221566.196058
 P2909                           1616701.526687 7203440.014513
 P2929                           1616094.483827 7203155.509285
 P2929                           1616079.379660 7203200.821785
 P293                            1622994.146931 7214890.222862
 P293                            1623023.034012 7215121.381192
 P2933                           1617523.878344 7206632.148170
 P2937                           1618409.240090 7206968.839426
 P2937                           1618409.620995 7207190.483668
 P2937                           1618409.005839 7207284.718060
 P2937                           1618409.727294 7207394.838574
 P2937                           1618409.570470 7207494.095922
 P2939                           1618816.329171 7206659.089390
 P2939                           1618906.725644 7206659.061174
 P2939                           1618969.554258 7206660.041159
 P2939                           1619105.114354 7206660.544439
 P2939                           1619108.870252 7206660.060516
 P2939                           1619146.798654 7206653.503443
 P2939                           1619182.185066 7206639.211148
 P2941                           1618550.865541 7205990.868828
 P2941                           1618688.886375 7205906.233412
 P2943                           1619575.320107 7204673.569410
 P2943                           1619558.787004 7204651.821094
 P2943                           1619507.727722 7204563.680195
 P2945                           1618302.167625 7206175.764662
 P2945                           1618414.146791 7206096.337578
 P2947                           1618127.017886 7206132.355207
 P2949                           1618090.759135 7206082.511516
 P2949                           1618082.078579 7205991.365682
 P295                            1623229.233403 7214877.895459
 P295                            1623336.438241 7214848.815464
 P2953                           1618769.615541 7205851.545912
 P2953                           1618884.198875 7205699.202162
 P2953                           1618909.518074 7205624.088538
 P2953                           1618930.380556 7205569.725580
 P2955                           1619513.255927 7205767.937300
 P2955                           1619532.792305 7205668.544455
 P2955                           1619547.831317 7205616.417918
 P2959                           1619315.828828 7206303.026125
 P2959                           1619329.793039 7206230.878632
 P2959                           1619366.967833 7206153.984429
 P2959                           1619454.792133 7206048.595860
 P2959                           1619466.896111 7206034.267148
 P2959                           1619484.359331 7206010.564112
 P2959                           1619497.325512 7205982.321058
 P2959                           1619508.948849 7205936.995033
 P2959                           1619509.608624 7205906.984923
 P2961                           1618365.498718 7206446.877835
 P2967                           1619301.147755 7205260.659772
 P2967                           1619245.585202 7205353.536226
 P2967                           1619159.265821 7205432.052145
 P2967                           1619119.895821 7205448.805393
 P2969                           1619667.582051 7205387.850057
 P2969                           1619676.262607 7205372.225057
 P2971                           1619794.318162 7205391.322279
 P2971                           1619832.512607 7205420.836168
 P2971                           1619882.859829 7205439.933391
 P2971                           1619948.832051 7205441.669502
 P2971                           1620000.915385 7205429.516724
 P2971                           1620039.109829 7205387.850057
 P2971                           1620044.318162 7205320.141724
 P2971                           1620065.151496 7205215.975057
 P2971                           1620042.582051 7205155.211168
 P2971                           1620016.540385 7205087.502835
 P2973                           1619752.651496 7205302.780613
 P2973                           1619757.859829 7205229.863946
 P2973                           1619804.734829 7205134.377835
 P2973                           1619841.193162 7205087.502835
 P2973                           1619901.957051 7205044.100057
 P2973                           1619960.984829 7205030.211168
 P2975                           1620044.318162 7204943.405613
 P2975                           1620125.915385 7204870.488946
 P2975                           1620103.345940 7204849.655613
 P2977                           1620184.943162 7204820.141724
 P2977                           1620205.776496 7204776.738946
 P2977                           1620210.984829 7204679.516724
 P2979                           1620112.026496 7204238.544502
 P2979                           1620066.887607 7204148.266724
 P2979                           1620002.651496 7204038.891724
 P2979                           1619997.308521 7204010.841107
 P2981                           1619978.293813 7203884.932533
 P2981                           1619933.207051 7203832.294502
 P2983                           1619592.929274 7203019.794502
 P2983                           1619561.679274 7203047.572279
 P2985                           1620162.373718 7204551.044502
 P2985                           1620156.743813 7204474.914624
 P2987                           1624948.974435 7215603.560581
 P2987                           1625151.258419 7215882.245886
 P2987                           1625338.724284 7216056.999517
 P2987                           1625449.157932 7216128.452798
 P2987                           1625539.131573 7216119.179521
 P2993                           1625289.929413 7217060.641421
 P2993                           1625286.001599 7217128.117336
 P2993                           1625278.880222 7217197.191017
 P2993                           1625278.880222 7217197.191017
 P2993                           1625265.128937 7217290.747260
 P2993                           1625257.317601 7217340.821963
 P2993                           1625249.789729 7217404.061994
 P2993                           1625244.690986 7217470.174067
 P2997                           1625264.341537 7216690.920048
 P2997                           1625263.287734 7216680.331158
 P3033                           1614291.465223 7216562.978927
 P3033                           1614204.225640 7216557.770594
 P3033                           1614146.933973 7216595.531010
 P3041                           1619241.801089 7218331.961713
 P3049                           1624881.043863 7214976.769745
 P305                            1622695.638998 7214316.780111
 P3051                           1625553.720831 7216123.108471
 P3051                           1625591.351040 7216025.799444
 P3051                           1625591.351040 7216007.136249
 P3051                           1625590.482984 7215984.132777
 P3051                           1625579.632290 7215955.920971
 P3051                           1625557.583678 7215889.818541
 P3053                           1624844.986925 7215166.929578
 P3053                           1624844.998560 7215167.742056
 P3059                           1623848.733804 7214663.397856
 P3059                           1623891.798351 7214684.061529
 P3059                           1623921.343567 7214728.984667
 P3059                           1623942.126334 7214903.683465
 P3059                           1623965.997677 7215053.857049
 P3059                           1624036.734741 7215260.673892
 P3061                           1625009.655383 7214674.865140
 P3065                           1624825.191888 7216024.150662
 P3065                           1624739.254388 7215892.206218
 P3065                           1624724.497444 7215860.088162
 P3065                           1624720.591194 7215840.990940
 P3065                           1624721.676263 7215691.251356
 P3065                           1624706.485291 7215644.593370
 P307                            1622949.646036 7213846.475933
 P307                            1623342.007456 7213838.142617
 P3073                           1625304.792583 7215209.914551
 P3073                           1625211.042583 7214880.053440
 P3073                           1625120.764805 7214741.164551
 P3077                           1624575.191888 7215484.003093
 P3077                           1624555.660638 7215450.365940
 P3077                           1624549.150222 7215428.664551
 P3077                           1624544.809944 7215367.900662
 P3077                           1624549.150222 7215331.008301
 P3077                           1624560.000916 7215288.690593
 P3077                           1624605.573833 7215224.671495
 P3077                           1624635.955777 7215196.459690
 P3077                           1624655.487027 7215186.694065
 P3077                           1624782.440152 7215167.162815
 P3081                           1610986.455723 7217904.442227
 P3081                           1611063.397170 7217936.217098
 P3081                           1611141.330085 7217966.532654
 P3081                           1611242.154687 7217993.057863
 P3081                           1611332.864807 7218005.358692
 P3081                           1611435.068015 7218010.858025
 P3081                           1611512.654802 7218013.495486
 P3081                           1611523.676433 7218012.782889
 P3081                           1611595.379702 7218012.735645
 P309                            1623430.175914 7214671.811881
 P309                            1623470.188302 7214663.996936
 P309                            1623479.686970 7214662.144578
 P309                            1623531.241985 7214642.995010
 P309                            1623545.807245 7214638.527827
 P31                             1620873.297826 7221583.123190
 P31                             1620871.214497 7221831.040017
 P31                             1620871.909049 7221933.123146
 P31                             1620839.964559 7221999.790007
 P31                             1620800.381305 7222037.984157
 P31                             1620731.631115 7222057.428672
 P3103                           1619488.373102 7203052.753754
 P3103                           1619453.775074 7203032.847954
 P3103                           1619431.381418 7203020.051720
 P3103                           1619333.986272 7202994.639041
 P3103                           1619281.734080 7203003.345061
 P3105                           1618312.063775 7202979.195503
 P3105                           1618285.313757 7202976.349272
 P3105                           1618247.561280 7202993.176774
 P3105                           1618205.969499 7203035.121244
 P3105                           1618098.804359 7203233.466320
 P3105                           1618041.148871 7203329.436334
 P3105                           1617974.842993 7203397.138236
 P3105                           1617935.996942 7203428.251363
 P3105                           1617912.050468 7203461.834957
 P3105                           1617907.737484 7203485.201052
 P3107                           1619487.978090 7204573.020727
 P3107                           1619443.477851 7204592.285452
 P3107                           1619404.298467 7204614.485867
 P3107                           1619335.241519 7204681.912898
 P3107                           1619319.523046 7204708.627739
 P3107                           1619288.351193 7204776.529506
 P3107                           1619279.313153 7204879.505022
 P3107                           1619312.599176 7205020.782299
 P3109                           1619520.095480 7204557.910193
 P3109                           1619548.865107 7204544.621506
 P3109                           1619554.769295 7204542.656615
 P3109                           1619603.737420 7204509.581623
 P3109                           1619640.456660 7204471.844903
 P3109                           1619674.572513 7204416.104078
 P3109                           1619693.220379 7204352.671654
 P3109                           1619697.030420 7204273.139155
 P3109                           1619703.321967 7204211.176581
 P3109                           1619715.081721 7204160.621315
 P3109                           1619728.270714 7204120.622435
 P3109                           1619739.711077 7204088.794614
 P3109                           1619753.662857 7204042.203092
 P3109                           1619760.925188 7204006.731739
 P3109                           1619765.657422 7203970.835161
 P311                            1623664.377874 7214639.611158
 P311                            1623664.782401 7214665.836171
 P3131                           1625746.955401 7217380.256267
 P3131                           1625741.480019 7217373.026623
 P3131                           1625702.627406 7217295.429009
 P3131                           1625679.169448 7217253.860523
 P3131                           1625645.228243 7217198.722510
 P3131                           1625622.093775 7217163.642527
 P3131                           1625583.698838 7217112.106541
 P3131                           1625544.042421 7217064.742463
 P3131                           1625504.022488 7217024.668396
 P3131                           1625486.886368 7217013.705819
 P3131                           1625451.874627 7216991.307242
 P3131                           1625386.391162 7216964.285643
 P3131                           1625335.966722 7216956.238415
 P3143                           1625053.436447 7217585.259466
 P3145                           1625191.197618 7217593.358926
 P3147                           1625156.301785 7217592.968301
 P317                            1622332.715839 7210963.595872
 P317                            1622142.162086 7210956.728104
 P3197                           1615393.158988 7205350.078971
 P3203                           1615753.702246 7205340.128884
 P323                            1622293.789736 7213849.146860
 P323                            1622318.095133 7213779.355333
 P3239                           1623983.040092 7220264.084675
 P3239                           1623977.571342 7220893.830046
 P3241                           1623977.462835 7220904.680740
 P3241                           1623972.623426 7221549.848564
 P3247                           1623976.114538 7220235.289205
 P3247                           1624221.947872 7220233.900316
 P3249                           1624242.781205 7220233.900316
 P3249                           1624469.170094 7220235.983649
 P325                            1622292.448859 7213723.820011
 P325                            1622138.581385 7213561.299667
 P3261                           1617291.599937 7220196.863495
 P3261                           1617431.045852 7220200.314932
 P3269                           1618769.055971 7202987.199096
 P3269                           1618687.097474 7202985.794243
 P3271                           1619020.881583 7203055.767200
 P3271                           1618893.803097 7203010.057974
 P3275                           1619776.068393 7203804.507172
 P3275                           1619777.940437 7203783.378606
 P3275                           1619779.029345 7203769.961310
 P3275                           1619780.695024 7203749.433135
 P3275                           1619782.272449 7203739.636895
 P3275                           1619794.820980 7203639.566557
 P3275                           1619795.171373 7203635.250949
 P3275                           1619782.347252 7203547.001454
 P3275                           1619776.965045 7203527.760350
 P3275                           1619755.985100 7203464.451750
 P3275                           1619746.146537 7203447.102375
 P3311                           1620783.006668 7209666.088953
 P3311                           1620745.246245 7209563.745326
 P3311                           1620709.959898 7209488.745476
 P3311                           1620687.042949 7209446.688145
 P3311                           1620622.459745 7209376.245373
 P3311                           1620559.438874 7209319.995485
 P3311                           1620506.183731 7209281.193397
 P3325                           1613883.502094 7218806.041146
 P3325                           1614329.246938 7218808.951901
 P3325                           1614417.831078 7218812.456487
 P3337                           1625554.268123 7222544.089444
 P3337                           1625616.247330 7222758.152008
 P3339                           1622744.130370 7213491.939569
 P3341                           1623416.695298 7212925.882958
 P3343                           1623404.335415 7213388.573634
 P3343                           1623227.929600 7213384.690768
 P3343                           1623123.108943 7213328.315224
 P3343                           1623089.246150 7213320.341487
 P3343                           1622833.566671 7213318.573921
 P3347                           1625923.422568 7217377.513819
 P3349                           1625913.758217 7217352.067675
 P3349                           1625820.164573 7217446.421817
 P3349                           1625773.983891 7217397.641731
 P3349                           1625717.998931 7217306.332714
 P3349                           1625683.937792 7217245.870234
 P3349                           1625632.586322 7217164.166799
 P3349                           1625575.016798 7217087.915624
 P3349                           1625508.953581 7217017.621822
 P3349                           1625455.972388 7216983.858110
 P3349                           1625389.847848 7216956.405081
 P3349                           1625309.202340 7216947.373931
 P3349                           1625291.993385 7216948.859820
 P3349                           1625271.024267 7216698.559140
 P3349                           1625318.024173 7216547.686410
 P335                            1621833.959291 7212721.176019
 P335                            1621808.180471 7212695.663274
 P3365                           1617907.050806 7203597.429502
 P3365                           1617895.923859 7203633.282121
 P3365                           1617778.475604 7203789.330693
 P3365                           1617749.903154 7203827.656076
 P341                            1622203.458880 7209981.421984
 P341                            1622266.131983 7209938.853171
 P341                            1622351.795853 7209922.123874
 P341                            1622468.562680 7209930.450301
 P343                            1622476.546916 7210536.977959
 P343                            1622547.033980 7210562.010390
 P343                            1622617.693615 7210582.930623
 P345                            1613212.441757 7206327.512625
 P345                            1613152.111825 7206582.720776
 P345                            1613125.636156 7206774.561272
 P347                            1613154.830980 7206850.531920
 P349                            1613896.035534 7207513.710384
 P3519                           1619159.929534 7203046.248846
 P3519                           1619140.285544 7203053.168124
 P3519                           1619076.423139 7203054.284591
 P3521                           1617667.823922 7203782.627295
 P3521                           1617607.338151 7203706.870556
 P3523                           1619720.322114 7203410.064720
 P3523                           1619708.140707 7203389.172045
 P3523                           1619684.535768 7203357.685887
 P3523                           1619646.897720 7203321.226971
 P3523                           1619581.721997 7203252.110311
 P3523                           1619570.346036 7203233.679902
 P3523                           1619534.047224 7203166.495653
 P3523                           1619532.218487 7203164.709567
 P355                            1615441.453047 7207444.915902
 P3587                           1615768.636201 7206071.039927
 P3589                           1625796.808919 7217444.321666
 P3589                           1625805.663085 7217503.696666
 P361                            1617006.609365 7205618.729266
 P361                            1616852.442679 7205655.187526
 P3613                           1625187.841764 7221534.851376
 P3613                           1625247.890672 7221552.233954
 P3613                           1625309.519813 7221617.023565
 P3615                           1625234.934240 7222005.576669
 P3615                           1625267.486323 7222155.316252
 P363                            1616044.837995 7206469.186882
 P365                            1616410.214889 7207209.489864
 P3673                           1617325.931233 7213575.467945
 P3677                           1618431.697722 7211680.625606
 P3683                           1618404.601648 7208262.383755
 P3683                           1618430.459864 7208381.625971
 P369                            1618099.729226 7206509.412524
 P369                            1618093.277139 7206512.089355
 P3695                           1625560.627817 7216138.613894
 P371                            1615778.057032 7207960.699975
 P3719                           1619601.770185 7222018.366414
 P3719                           1619367.394998 7222020.102303
 P3721                           1618890.832631 7221982.775934
 P3723                           1618435.431967 7221994.408128
 P3725                           1620117.395138 7221976.699502
 P373                            1613122.588918 7209930.200958
 P373                            1612488.452719 7209919.387987
 P375                            1611982.549860 7208726.679415
 P375                            1611949.911145 7208741.610159
 P375                            1611849.563905 7209035.707340
 P3767                           1616413.271969 7208036.211963
 P379                            1614416.039087 7208209.173888
 P383                            1615773.544902 7209579.426725
 P383                            1615773.062948 7209579.534008
 P385                            1614439.828082 7209834.320900
 P387                            1613910.740885 7209820.750061
 P387                            1613838.209206 7209638.515189
 P387                            1613421.976443 7209628.098543
 P387                            1613412.988928 7209920.091070
 P389                            1615775.122983 7208028.467884
 P389                            1615775.181710 7208535.068249
 P389                            1615774.275872 7208548.896962
 P39                             1618410.411020 7221507.647947
 P393                            1616413.140080 7207212.043992
 P395                            1616403.863852 7208666.231045
 P395                            1616869.413117 7208666.093906
 P397                            1615774.847065 7209572.785990
 P397                            1615775.427116 7209572.829953
 P397                            1615800.150820 7209573.176737
 P399                            1616913.467491 7209584.040233
 P399                            1617100.706946 7209613.727837
 P405                            1617523.289106 7209611.949954
 P407                            1617521.191998 7210090.916844
 P407                            1617270.075374 7210091.093352
 P409                            1617522.896719 7210244.304988
 P409                            1617552.953089 7210314.400649
 P409                            1617608.074698 7210422.581863
 P409                            1617606.924438 7210578.319740
 P409                            1617547.028560 7210676.236539
 P409                            1617551.673892 7210916.517883
 P411                            1616662.334135 7209579.507105
 P411                            1616664.904996 7209706.306064
 P411                            1616685.390848 7209768.285271
 P411                            1616759.001921 7209922.625513
 P411                            1616776.363107 7210003.528239
 P411                            1616771.154784 7210094.847610
 P411                            1616743.550836 7210167.417019
 P413                            1616343.370862 7210277.222901
 P415                            1616728.160119 7210195.268997
 P417                            1616005.383021 7210898.124219
 P417                            1616443.750911 7210904.721646
 P423                            1614911.074842 7210889.159998
 P425                            1614892.213004 7212155.105957
 P427                            1613120.514119 7209616.840364
 P429                            1613146.783095 7213500.924131
 P435                            1613304.023266 7213504.306014
 P435                            1613487.009121 7213505.434293
 P435                            1614105.238528 7213522.014312
 P439                            1614387.385929 7212704.361092
 P439                            1613989.379507 7212703.428351
 P439                            1613897.799638 7212702.777433
 P439                            1613897.365584 7213110.329440
 P439                            1613940.985247 7213110.329440
 P439                            1614373.442059 7213110.282852
 P445                            1613108.629956 7213509.610137
 P447                            1613134.687975 7213507.776152
 P449                            1613109.668012 7212096.964997
 P45                             1622141.459988 7221530.787008
 P451                            1613040.995905 7212426.147081
 P451                            1613021.464448 7212561.780996
 P451                            1612998.460885 7212790.513478
 P451                            1612681.403777 7212775.322564
 P451                            1612606.631945 7212674.698093
 P455                            1613048.977517 7213073.965339
 P457                            1615769.637102 7213548.235060
 P457                            1615770.853307 7213546.691756
 P457                            1615813.170807 7213547.212752
 P457                            1616119.811598 7213552.941744
 P457                            1616328.014594 7213556.327236
 P457                            1616347.936470 7213556.066737
 P457                            1616499.759657 7213559.452229
 P457                            1616810.436529 7213565.051299
 P457                            1617007.571962 7213568.827211
 P459                            1615774.023904 7210901.799080
 P461                            1615742.048902 7213972.061968
 P461                            1615311.608490 7213967.004236
 P461                            1615144.941829 7213967.525232
 P461                            1615142.077333 7214084.973160
 P461                            1615133.744017 7214526.639927
 P465                            1615755.408128 7214931.516086
 P467                            1615761.695845 7214371.934856
 P467                            1616196.860000 7214371.988990
 P469                            1616202.965631 7214114.770344
 P47                             1624309.669234 7219825.180511
 P47                             1624354.157334 7219888.114441
 P47                             1624394.017163 7219918.700009
 P47                             1624458.323793 7219981.430527
 P47                             1624480.025193 7220030.258513
 P471                            1616339.901381 7214114.336290
 P471                            1616636.776444 7214115.421590
 P471                            1616769.371651 7214115.638453
 P471                            1616831.871854 7214130.178450
 P473                            1615753.794942 7215379.147081
 P473                            1615699.482386 7215390.629669
 P473                            1615409.551864 7215385.681845
 P475                            1615118.346081 7215383.876074
 P475                            1615131.947760 7215741.411120
 P475                            1615156.513656 7215997.719006
 P475                            1615162.198028 7216165.534944
 P479                            1615756.041000 7215398.428866
 P479                            1616148.463444 7215405.668681
 P481                            1613107.615851 7216119.254852
 P487                            1614755.605009 7216160.093025
 P489                            1617418.565890 7216208.482036
 P491                            1617414.328038 7217210.192959
 P491                            1617840.705794 7217207.864224
 P491                            1617836.567023 7217535.508910
 P495                            1617411.380865 7217179.090003
 P497                            1617412.651860 7216740.483925
 P501                            1611681.829989 7213353.695095
 P501                            1611702.584212 7213307.715856
 P501                            1611598.417426 7213266.222829
 P501                            1611440.257637 7213255.632627
 P501                            1611363.174458 7213273.167369
 P501                            1611367.344725 7213298.702751
 P501                            1611373.811904 7213328.424148
 P505                            1612127.551210 7213039.032010
 P505                            1612074.426316 7212952.703771
 P505                            1612017.915602 7212866.766279
 P505                            1611998.384474 7212806.219484
 P505                            1611993.566898 7212786.948525
 P511                            1612344.352942 7212760.529943
 P511                            1612354.057319 7212827.235190
 P511                            1612354.057319 7212940.603073
 P511                            1612349.543220 7213019.075357
 P511                            1612334.959916 7213056.401726
 P511                            1612286.175237 7213103.624073
 P513                            1612421.678903 7212718.380749
 P513                            1612463.128295 7212704.708860
 P513                            1612600.606694 7212676.931357
 P515                            1612068.814123 7212508.528478
 P515                            1612010.145933 7212504.957947
 P517                            1611206.565847 7212551.377146
 P519                            1611741.887939 7212728.181910
 P519                            1611581.415491 7212730.576919
 P519                            1611480.894695 7212739.518174
 P519                            1611397.995254 7212762.000740
 P521                            1611755.387912 7212493.164008
 P523                            1611265.615926 7213345.447080
 P523                            1611257.304591 7213290.209001
 P523                            1611259.665479 7213250.764527
 P523                            1611288.311419 7213166.736807
 P523                            1611338.128576 7213092.946273
 P523                            1611396.166846 7213034.074671
 P523                            1611456.713641 7213002.824734
 P523                            1611548.250203 7212978.345452
 P523                            1611642.000016 7212979.517366
 P523                            1611724.147161 7212999.629858
 P525                            1611894.106467 7213644.743725
 P525                            1611857.127210 7213756.549276
 P529                            1611441.502385 7214029.118613
 P543                            1613041.436849 7213936.403903
 P543                            1612836.010095 7213940.103043
 P551                            1612336.911356 7213775.023320
 P551                            1612390.123191 7213620.596136
 P551                            1612416.859358 7213550.804609
 P551                            1612428.491225 7213488.998958
 P551                            1612431.700864 7213410.922015
 P551                            1612431.720877 7213409.570311
 P553                            1612607.373085 7213456.733931
 P553                            1612610.655887 7213937.719845
 P555                            1612834.578011 7213939.018071
 P555                            1612832.036022 7213492.148886
 P559                            1611617.079134 7214931.656506
 P561                            1611707.356840 7214854.572999
 P563                            1613016.847660 7216077.836956
 P565                            1613016.621938 7216144.167860
 P565                            1612778.521693 7216138.952320
 P565                            1612689.545821 7216133.309942
 P565                            1612602.957411 7216111.825733
 P567                            1612334.077044 7215910.653892
 P567                            1612266.151655 7215809.959211
 P57                             1621684.841151 7219566.586869
 P571                            1612243.102160 7215750.454081
 P571                            1612048.033324 7215814.445095
 P571                            1612032.191164 7215813.576986
 P571                            1611949.292052 7215802.075041
 P571                            1611811.922248 7215728.724466
 P571                            1611712.312867 7215697.691391
 P571                            1611556.930960 7215694.436148
 P573                            1611084.057562 7215691.614960
 P573                            1610992.911747 7215663.837456
 P573                            1610891.132423 7215584.193259
 P573                            1610823.423897 7215432.717512
 P573                            1610820.602708 7215406.675897
 P573                            1610820.819900 7215273.863499
 P573                            1610876.592426 7215158.846012
 P573                            1610988.137478 7215061.189711
 P573                            1611035.012385 7215034.497179
 P575                            1611478.273309 7215094.609920
 P575                            1611575.495556 7215105.721118
 P577                            1612572.930569 7220533.247993
 P577                            1612645.630226 7220596.182250
 P577                            1612995.199081 7220596.137959
 P579                            1612482.472088 7220191.939620
 P581                            1612764.672967 7221471.149989
 P583                            1613045.292157 7219758.535960
 P583                            1613076.989600 7219757.775791
 P583                            1613275.296618 7219757.645542
 P583                            1613480.505197 7219738.765330
 P585                            1614919.594839 7219436.225909
 P585                            1615650.346002 7219438.552020
 P587                            1622020.078669 7214084.764827
 P587                            1621975.217538 7214098.028908
 P587                            1621928.898077 7214120.806750
 P587                            1621849.453682 7214163.514998
 P587                            1621754.453872 7214211.431568
 P589                            1621668.342496 7214233.306525
 P589                            1621568.481475 7214231.709415
 P589                            1621509.800818 7214227.959422
 P589                            1621414.314789 7214222.611992
 P589                            1621313.984937 7214216.674668
 P589                            1621265.599535 7214209.174683
 P589                            1621191.537019 7214183.341401
 P589                            1621140.547620 7214149.591469
 P589                            1621109.297354 7214120.997694
 P589                            1621063.880778 7214064.278976
 P589                            1621049.922473 7214033.080875
 P589                            1621028.672515 7213962.976685
 P589                            1621030.287013 7213909.226792
 P59                             1622367.842081 7220267.448984
 P597                            1619088.120950 7209135.779974
 P599                            1618432.009073 7209152.281910
 P599                            1618514.905233 7209150.806519
 P599                            1618750.582255 7209147.421027
 P599                            1619024.019700 7209138.046046
 P599                            1619087.248905 7209134.855107
 P601                            1618413.809963 7210283.157929
 P603                            1619067.766004 7210941.617898
 P605                            1619247.554030 7210945.381014
 P605                            1619242.417886 7211194.802759
 P605                            1619240.681669 7211616.677900
 P605                            1619242.070446 7211977.789054
 P605                            1618814.639870 7211967.372408
 P605                            1618696.237220 7211956.955762
 P605                            1618430.999889 7211955.481028
 P607                            1619745.384071 7210945.952863
 P607                            1619748.436231 7210744.860746
 P607                            1619751.561224 7210490.520375
 P607                            1619748.262675 7210241.562212
 P607                            1619746.049096 7210001.570894
 P607                            1619755.011677 7209953.849532
 P607                            1619809.568982 7209893.562908
 P607                            1619888.866068 7209876.375606
 P607                            1620000.064008 7209877.156772
 P607                            1620231.834870 7209882.234846
 P607                            1620456.313752 7209894.604572
 P607                            1620576.756753 7209903.068138
 P607                            1620673.501310 7209888.094415
 P607                            1620695.506515 7209874.031779
 P607                            1620760.350217 7209811.922323
 P61                             1621665.868091 7220629.409874
 P613                            1622878.641256 7211315.723777
 P615                            1622802.706041 7212564.590046
 P615                            1623094.733672 7212563.643197
 P623                            1620359.488158 7211615.755985
 P623                            1619788.657935 7211616.146077
 P623                            1619742.100613 7211616.640826
 P623                            1619741.773842 7211650.301848
 P623                            1619735.503186 7212263.168733
 P625                            1620414.012984 7210964.913127
 P625                            1620408.970999 7211316.694576
 P625                            1620407.851250 7211394.828278
 P629                            1620453.311133 7212028.182326
 P629                            1621031.071133 7212026.863103
 P631                            1618441.207874 7212601.616875
 P633                            1618435.213135 7213269.211012
 P639                            1618438.744952 7210959.946930
 P639                            1618431.480531 7211384.401789
 P641                            1618404.953025 7215692.963054
 P641                            1618502.599812 7215693.451242
 P647                            1614756.728038 7216344.712079
 P649                            1615075.542033 7217666.832138
 P65                             1621652.715887 7220579.162927
 P651                            1615074.185080 7217667.965010
 P651                            1615079.030543 7218035.457057
 P653                            1614773.683057 7217176.047358
 P653                            1614776.599718 7217360.283538
 P653                            1614778.266381 7217438.408710
 P653                            1614781.738815 7217548.096155
 P653                            1614795.627567 7217620.839120
 P653                            1614796.976973 7217668.197949
 P653                            1614797.168574 7217669.265532
 P659                            1617433.721044 7220206.534079
 P659                            1617634.308241 7220206.149894
 P661                            1617798.889933 7220212.463858
 P663                            1618427.010068 7220452.852484
 P669                            1617983.653015 7220212.700406
 P669                            1618009.962017 7220212.867072
 P669                            1618014.634580 7220212.896600
 P67                             1621060.016613 7220567.195104
 P671                            1618440.220343 7221431.143179
 P671                            1618386.834951 7221430.709125
 P671                            1618386.305097 7221476.355031
 P675                            1618362.809081 7221985.229997
 P675                            1618245.341796 7222003.191903
 P675                            1618171.123112 7222005.795901
 P677                            1617056.669961 7221493.393054
 P679                            1616765.347381 7221630.459381
 P679                            1616748.420577 7221706.240398
 P679                            1616746.857916 7221811.709347
 P679                            1616750.503906 7221969.261197
 P679                            1616767.170540 7222048.167535
 P679                            1616767.430710 7222173.167613
 P681                            1616423.850032 7222640.463595
 P681                            1616406.662731 7222709.734454
 P681                            1616403.537737 7222786.296965
 P681                            1616403.231963 7222832.266033
 P685                            1616064.732968 7221484.265120
 P685                            1616048.848486 7222012.123316
 P689                            1616680.011593 7221490.031512
 P691                            1617776.875541 7221190.346088
 P691                            1617774.792212 7220960.137887
 P693                            1616986.785914 7221489.811040
 P695                            1616694.878033 7221487.482961
 P703                            1615763.435014 7220184.833007
 P709                            1617707.393069 7219927.376501
 P709                            1617614.836495 7219929.220986
 P709                            1617432.932988 7219930.072034
 P71                             1620412.408000 7220891.482841
 P71                             1620700.258146 7220896.886045
 P717                            1615759.860875 7220516.204064
 P717                            1615431.447489 7220515.366467
 P719                            1615002.606155 7221485.420957
 P721                            1614537.718962 7221486.554157
 P721                            1614538.192386 7221900.948013
 P721                            1614931.179133 7221900.653067
 P727                            1615102.905824 7222570.435848
 P727                            1615104.728655 7222656.373340
 P727                            1615127.384777 7222688.404772
 P727                            1615124.826055 7222823.986850
 P731                            1614535.230122 7222196.578000
 P733                            1615751.363844 7221485.154882
 P735                            1615469.861783 7222522.964814
 P735                            1615649.186883 7222524.457921
 P737                            1614998.551045 7220185.484909
 P737                            1614998.273487 7220197.300174
 P737                            1615003.156351 7220206.957307
 P737                            1614997.479853 7221465.231037
 P739                            1614165.806976 7222171.807052
 P741                            1614381.529970 7222812.054131
 P741                            1614655.488411 7222818.998671
 P745                            1613840.874883 7222171.729952
 P745                            1613831.703642 7222511.915295
 P745                            1613826.205949 7222790.305159
 P749                            1613362.301037 7222172.220109
 P75                             1620368.850016 7221507.144995
 P751                            1613164.122300 7222805.363527
 P751                            1613149.538995 7222815.519675
 P751                            1613011.517946 7222814.999007
 P753                            1613014.642940 7222757.967625
 P753                            1613018.809598 7222632.446879
 P755                            1613023.857160 7222464.138160
 P755                            1613043.635992 7222464.738553
 P755                            1613477.142999 7222467.342878
 P755                            1613524.538902 7222467.863546
 P755                            1613517.469034 7222795.951145
 P761                            1614356.648130 7220221.258131
 P763                            1614350.220977 7220833.015110
 P763                            1614080.940676 7220838.326451
 P763                            1613890.801949 7220850.131874
 P767                            1613815.324081 7220206.396941
 P769                            1614139.731569 7221218.037962
 P769                            1614351.139939 7221218.031072
 P773                            1618125.115987 7222679.407086
 P773                            1618000.984017 7222741.473235
 P773                            1617827.373144 7222804.407165
 P773                            1617711.053494 7222840.865425
 P777                            1619840.108291 7216954.930018
 P779                            1619368.979969 7216957.806981
 P781                            1619365.476039 7217541.190001
 P781                            1619365.547889 7217558.451121
 P785                            1619328.294026 7216910.140082
 P785                            1619331.419020 7216914.653852
 P785                            1619364.363836 7216914.588892
 P789                            1618321.152996 7217285.868989
 P789                            1618158.760276 7217287.724300
 P789                            1618159.982058 7217091.184667
 P789                            1618320.479113 7217090.931715
 P789                            1618318.083120 7217201.739236
 P79                             1619701.624973 7220558.841118
 P79                             1620018.423552 7220556.457264
 P79                             1620016.470472 7221051.248925
 P79                             1619664.818944 7221050.286985
 P791                            1618358.572869 7218689.845840
 P791                            1618861.266745 7218689.579764
 P793                            1619100.924074 7219029.133875
 P795                            1619255.968056 7217876.652584
 P795                            1619245.551410 7218137.069058
 P795                            1619231.228604 7218175.610976
 P795                            1619229.954984 7218331.025035
 P797                            1618349.537126 7217563.499995
 P797                            1618437.088460 7217563.758197
 P801                            1617970.542149 7219530.961940
 P807                            1617708.491492 7219389.062945
 P809                            1617437.044856 7213582.681842
 P809                            1617433.459561 7213762.446902
 P813                            1609938.775076 7213398.784244
 P815                            1610295.427906 7213299.054128
 P817                            1610547.787309 7213316.131522
 P819                            1610800.249403 7213331.515021
 P821                            1611010.958627 7213344.194786
 P823                            1610377.692177 7213631.803791
 P823                            1610378.386401 7213658.887070
 P825                            1611117.969896 7213772.775950
 P829                            1620257.748204 7203456.180113
 P829                            1620377.887071 7203537.429951
 P829                            1620510.526242 7203652.707607
 P83                             1618914.828974 7220896.960848
 P831                            1620786.220572 7204051.319015
 P831                            1620802.887206 7204142.985498
 P831                            1620798.943972 7204293.830669
 P835                            1620809.218230 7204496.527114
 P837                            1621295.503018 7205500.520184
 P839                            1621403.489023 7205568.749379
 P841                            1621565.507400 7206034.267148
 P845                            1622177.735178 7207379.339261
 P847                            1622563.073974 7208070.240767
 P849                            1622793.325482 7208504.268442
 P853                            1623215.512958 7209293.406956
 P855                            1623464.861869 7209719.188256
 P857                            1623772.210335 7210254.224588
 P859                            1624173.724624 7210992.188007
 P863                            1622641.835628 7210976.879967
 P863                            1622679.856549 7210943.720256
 P863                            1622919.266175 7210944.241252
 P863                            1622989.578699 7210945.977141
 P869                            1616786.887692 7212050.970010
 P869                            1616786.887692 7211765.206146
 P869                            1616786.019583 7211481.525611
 P869                            1616785.498915 7211423.713062
 P869                            1616758.068196 7211263.643501
 P869                            1616760.230921 7210910.672094
 P871                            1617608.771219 7214223.483710
 P871                            1618013.244163 7214244.068314
 P871                            1618214.662395 7214246.650330
 P871                            1618334.481053 7214222.929577
 P879                            1615916.488842 7219498.397700
 P879                            1615977.802040 7219518.903893
 P879                            1616089.459297 7219521.940304
 P881                            1616583.007850 7219521.678166
 P883                            1616230.925877 7219519.692277
 P887                            1613079.617219 7217542.481993
 P887                            1613078.487628 7217646.134673
 P887                            1613077.398063 7217746.122662
 P887                            1613076.198263 7217856.197901
 P889                            1613081.581126 7217362.274348
 P889                            1613081.609669 7217359.661164
 P889                            1613081.810128 7217341.266188
 P889                            1613082.644444 7217264.703349
 P889                            1613083.751397 7217163.133998
 P889                            1613083.864914 7217152.720305
 P889                            1613084.195950 7217122.336508
 P889                            1613085.119177 7217037.624079
 P889                            1613086.055855 7216951.678056
 P889                            1613087.899027 7216782.572423
 P889                            1613088.172976 7216757.414993
 P89                             1619072.112780 7220567.177715
 P89                             1619073.024196 7220544.087210
 P891                            1612579.008640 7216687.775369
 P893                            1612132.480006 7216671.021137
 P895                            1612579.636920 7216939.300128
 P897                            1612580.132654 7216686.698927
 P899                            1612304.472444 7216639.014312
 P899                            1612194.170171 7216636.667531
 P899                            1612133.930790 7216670.916151
 P903                            1612576.500443 7216327.470315
 P909                            1612577.538171 7216327.448006
 P909                            1612579.524059 7216138.195431
 P91                             1619373.659093 7220546.186943
 P911                            1616740.030174 7219851.695222
 P913                            1616438.217129 7219851.620419
 P913                            1616433.678096 7219932.867304
 P915                            1610634.275325 7214021.937853
 P925                            1621186.549824 7221866.858187
 P925                            1621198.808002 7221879.605208
 P929                            1622187.470066 7221630.734643
 P929                            1622201.710852 7221888.266608
 P931                            1623273.269076 7220252.250523
 P935                            1623049.551347 7220284.216995
 P935                            1623052.784937 7220399.969388
 P935                            1623046.738361 7220406.479874
 P937                            1625700.558185 7216261.353978
 P937                            1625854.298691 7216358.185805
 P939                            1625994.748213 7216396.905216
 P945                            1613133.286403 7214143.641021
 P949                            1613276.345172 7214338.190829
 P949                            1613277.550878 7214338.198375
 P95                             1619052.530142 7220233.884090
 P955                            1609337.994453 7213746.457105
 P955                            1609320.680183 7213777.509536
 P955                            1609301.137571 7213815.875601
 P955                            1609281.233084 7213851.772839
 P955                            1609263.016257 7213885.914175
 P955                            1609244.133092 7213920.704131
 P955                            1609206.916959 7213990.680041
 P955                            1609187.295607 7214027.160283
 P955                            1609168.919004 7214060.286201
 P957                            1609148.577181 7214100.079429
 P957                            1609131.402347 7214131.371689
 P957                            1609112.166493 7214167.052720
 P959                            1609096.664555 7214199.075294
 P959                            1609099.913892 7214200.804293
 P959                            1609176.836967 7214238.432827
 P961                            1610427.929609 7216671.976188
 P961                            1610431.477502 7216783.548143
 P961                            1610430.945679 7216796.437881
 P961                            1610432.830518 7216843.164166
 P961                            1610431.685507 7216861.365901
 P961                            1610432.348235 7216906.324801
 P961                            1610430.873829 7216913.420587
 P961                            1610429.585774 7217011.792765
 P961                            1610431.072976 7217016.782913
 P961                            1610431.193710 7217050.437701
 P961                            1610434.476840 7217068.989501
 P961                            1610439.752420 7217112.558968
 P961                            1610449.179239 7217162.973237
 P961                            1610449.705812 7217178.554243
 P961                            1610457.741557 7217222.309733
 P961                            1610467.629989 7217276.250242
 P961                            1610476.259237 7217305.542834
 P961                            1610480.067628 7217318.718005
 P963                            1610848.913675 7217818.681244
 P963                            1610903.130430 7217858.970861
 P963                            1610940.668413 7217883.014776
 P965                            1610479.002998 7217320.327581
 P971                            1618434.627506 7206847.027334
 P971                            1618436.367989 7206864.807810
 P973                            1618407.545868 7207495.523740
 P975                            1620152.497102 7204852.499171
 P975                            1620152.866524 7204850.132378
 P975                            1620151.937064 7204848.927656
 P979                            1614276.408461 7214813.739747
 P981                            1614466.248304 7214824.689200
 P983                            1614444.121052 7214778.143689
 P983                            1614445.309698 7214783.365792
 P987                            1614430.487221 7213889.387921
 P987                            1614429.772655 7213934.570573
 P987                            1614429.163733 7213973.058685
 P987                            1614433.854340 7214043.997192
 P987                            1614440.352359 7214109.353688
 P987                            1614446.806742 7214182.453608
 P987                            1614448.743090 7214380.651046
 P987                            1614448.554114 7214383.780305
 P987                            1614449.936001 7214409.781565
 P989                            1624184.995848 7210998.677871
 P989                            1624270.207763 7211078.691706
 P989                            1624442.150536 7211480.490156
 P989                            1624621.763652 7211863.481447
 P989                            1624852.582054 7212348.935587
 P989                            1624977.740554 7212964.702331
 P989                            1624999.315701 7213117.840038
 P989                            1625083.090223 7213543.926106
 P989                            1625025.180088 7213600.245232
 P989                            1625008.201911 7213621.696734
 P989                            1624998.538076 7213630.753909
 P991                            1618531.374077 7214910.439864
 P995                            1619000.124077 7214946.898198
 P997                            1615731.460883 7216233.530142
 P999                            1616582.274938 7218999.783530
 P999                            1616582.190773 7218893.748603

[END]
